 vasp.5.4.1 24Jun15 (build Dec 08 2016 12:24:04) complex

 executed on           IFC91_ompi date 2017.09.15  18:48:46

 INCAR:
 POTCAR:    PAW_PBE Sc_sv 07Sep2000
 POTCAR:    PAW_PBE H 15Jun2001
 POTCAR:    PAW_PBE Cl 06Sep2000

 POTCAR:    PAW_PBE Sc_sv 07Sep2000
   VRHFIN =Sc: 3p4s3d

   TITEL  = PAW_PBE Sc_sv 07Sep2000
   POMASS =   44.956; ZVAL   =   11.000    mass and valenz
   ENMAX  =  222.660; ENMIN  =  166.995 eV

 POTCAR:    PAW_PBE H 15Jun2001
   VRHFIN =H: ultrasoft test

   TITEL  = PAW_PBE H 15Jun2001
   POMASS =    1.000; ZVAL   =    1.000    mass and valenz
   ENMAX  =  250.000; ENMIN  =  200.000 eV

 POTCAR:    PAW_PBE Cl 06Sep2000
   VRHFIN =Cl: s2p5

   TITEL  = PAW_PBE Cl 06Sep2000
   POMASS =   35.453; ZVAL   =    7.000    mass and valenz
   ENMAX  =  262.472; ENMIN  =  196.854 eV

  PAW_PBE Sc_sv 07Sep2000               :
  PAW_PBE H 15Jun2001                   :
  PAW_PBE Cl 06Sep2000                  :

 POSCAR: Surf-mp-24081
  positions in direct lattice
 exchange correlation table for  LEXCH =       42
   RHO(1)=    0.500       N(1)  =     2000
   RHO(2)=  100.500       N(2)  =     4000

 ion  position               nearest neighbor table
   1  0.667  0.333  0.451-   3 2.00   4 2.09   4 2.09   4 2.09   5 2.59   5 2.59   5 2.59   2 3.23
                             2 3.23   2 3.23
   2  0.333  0.667  0.549-   4 2.00   3 2.09   3 2.09   3 2.09   6 2.59   6 2.59   6 2.59   1 3.23
                             1 3.23   1 3.23
   3  0.667  0.333  0.529-   1 2.00   2 2.09   2 2.09   2 2.09
   4  0.333  0.667  0.471-   2 2.00   1 2.09   1 2.09   1 2.09
   5  0.000  0.000  0.388-   1 2.59   1 2.59   1 2.59
   6  0.000  0.000  0.612-   2 2.59   2 2.59   2 2.59

  LATTYP: Found a hexagonal cell.
 ALAT       =     3.5101207878
 C/A-ratio  =     7.3339826622

  Lattice vectors:

 A1 = (   3.5101210000,   0.0000000000,   0.0000000000)
 A2 = (  -1.7550610000,   3.0398540000,   0.0000000000)
 A3 = (   0.0000000000,   0.0000000000,  25.7431650000)

Analysis of symmetry for initial positions (statically):
 Subroutine PRICEL returns:
 Original cell was already a primitive cell.

 Routine SETGRP: Setting up the symmetry group for a
 hexagonal supercell.

 Subroutine GETGRP returns: Found 12 space group operations
 (whereof 12 operations were pure point group operations)
 out of a pool of 24 trial point group operations.

The static configuration has the point symmetry D_3d.

Analysis of symmetry for dynamics (positions and initial velocities):
 Subroutine PRICEL returns:
 Original cell was already a primitive cell.

 Routine SETGRP: Setting up the symmetry group for a
 hexagonal supercell.

 Subroutine GETGRP returns: Found 12 space group operations
 (whereof 12 operations were pure point group operations)
 out of a pool of 24 trial point group operations.

The dynamic configuration has the point symmetry D_3d.

Analysis of magnetic symmetry:
 Subroutine PRICEL returns:
 Original cell was already a primitive cell.

 Subroutine MAGSYM returns: Found 12 space group operations
 (whereof 12 operations were pure point group operations)
 out of a pool of 12 trial space group operations
 (whereof 12 operations were pure point group operations)
 and found also     1 'primitive' translations

The magnetic configuration has the point symmetry D_3d.

 KPOINTS: Automatic kpoint scheme

Automatic generation of k-mesh.
Space group operators:
 irot       det(A)        alpha          n_x          n_y          n_z        tau_x        tau_y        tau_z
    1     1.000000     0.000000     1.000000     0.000000     0.000000     0.000000     0.000000     0.000000
    2    -1.000000     0.000000     1.000000     0.000000     0.000000     0.000000     0.000000     0.000000
    3     1.000000   120.000000     0.000000     0.000000    -1.000000     0.000000     0.000000     0.000000
    4    -1.000000   120.000000     0.000000     0.000000    -1.000000     0.000000     0.000000     0.000000
    5     1.000000   120.000000     0.000000     0.000000     1.000000     0.000000     0.000000     0.000000
    6    -1.000000   120.000000     0.000000     0.000000     1.000000     0.000000     0.000000     0.000000
    7     1.000000   180.000000     1.000000     0.000000     0.000000     0.000000     0.000000     0.000000
    8    -1.000000   180.000000     1.000000     0.000000     0.000000     0.000000     0.000000     0.000000
    9     1.000000   180.000000     0.500000    -0.866025     0.000000     0.000000     0.000000     0.000000
   10    -1.000000   180.000000     0.500000    -0.866025     0.000000     0.000000     0.000000     0.000000
   11     1.000000   180.000000    -0.500000    -0.866025     0.000000     0.000000     0.000000     0.000000
   12    -1.000000   180.000000    -0.500000    -0.866025     0.000000     0.000000     0.000000     0.000000

 Subroutine IBZKPT returns following result:

 Found     44 irreducible k-points:

 Following reciprocal coordinates:
            Coordinates               Weight
  0.000000  0.000000  0.000000      1.000000
  0.050000  0.000000  0.000000      6.000000
  0.100000  0.000000  0.000000      6.000000
  0.150000  0.000000  0.000000      6.000000
  0.200000 -0.000000  0.000000      6.000000
  0.250000  0.000000  0.000000      6.000000
  0.300000 -0.000000  0.000000      6.000000
  0.350000 -0.000000  0.000000      6.000000
  0.400000 -0.000000  0.000000      6.000000
  0.450000 -0.000000  0.000000      6.000000
  0.500000  0.000000  0.000000      3.000000
  0.050000  0.050000  0.000000      6.000000
  0.100000  0.050000  0.000000     12.000000
  0.150000  0.050000  0.000000     12.000000
  0.200000  0.050000  0.000000     12.000000
  0.250000  0.050000  0.000000     12.000000
  0.300000  0.050000  0.000000     12.000000
  0.350000  0.050000  0.000000     12.000000
  0.400000  0.050000  0.000000     12.000000
  0.450000  0.050000  0.000000     12.000000
  0.100000  0.100000  0.000000      6.000000
  0.150000  0.100000  0.000000     12.000000
  0.200000  0.100000  0.000000     12.000000
  0.250000  0.100000  0.000000     12.000000
  0.300000  0.100000  0.000000     12.000000
  0.350000  0.100000  0.000000     12.000000
  0.400000  0.100000  0.000000     12.000000
  0.450000  0.100000  0.000000      6.000000
  0.150000  0.150000  0.000000      6.000000
  0.200000  0.150000  0.000000     12.000000
  0.250000  0.150000  0.000000     12.000000
  0.300000  0.150000  0.000000     12.000000
  0.350000  0.150000  0.000000     12.000000
  0.400000  0.150000  0.000000     12.000000
  0.200000  0.200000  0.000000      6.000000
  0.250000  0.200000  0.000000     12.000000
  0.300000  0.200000  0.000000     12.000000
  0.350000  0.200000  0.000000     12.000000
  0.400000  0.200000  0.000000      6.000000
  0.250000  0.250000  0.000000      6.000000
  0.300000  0.250000  0.000000     12.000000
  0.350000  0.250000  0.000000     12.000000
  0.300000  0.300000  0.000000      6.000000
  0.350000  0.300000  0.000000      6.000000

 Following cartesian coordinates:
            Coordinates               Weight
  0.000000  0.000000  0.000000      1.000000
  0.014245  0.008224  0.000000      6.000000
  0.028489  0.016448  0.000000      6.000000
  0.042734  0.024672  0.000000      6.000000
  0.056978  0.032896  0.000000      6.000000
  0.071223  0.041120  0.000000      6.000000
  0.085467  0.049344  0.000000      6.000000
  0.099712  0.057569  0.000000      6.000000
  0.113956  0.065793  0.000000      6.000000
  0.128201  0.074017  0.000000      6.000000
  0.142445  0.082241  0.000000      3.000000
  0.014245  0.024672  0.000000      6.000000
  0.028489  0.032896  0.000000     12.000000
  0.042734  0.041120  0.000000     12.000000
  0.056978  0.049344  0.000000     12.000000
  0.071223  0.057569  0.000000     12.000000
  0.085467  0.065793  0.000000     12.000000
  0.099712  0.074017  0.000000     12.000000
  0.113956  0.082241  0.000000     12.000000
  0.128201  0.090465  0.000000     12.000000
  0.028489  0.049344  0.000000      6.000000
  0.042734  0.057569  0.000000     12.000000
  0.056978  0.065793  0.000000     12.000000
  0.071223  0.074017  0.000000     12.000000
  0.085467  0.082241  0.000000     12.000000
  0.099712  0.090465  0.000000     12.000000
  0.113956  0.098689  0.000000     12.000000
  0.128201  0.106913  0.000000      6.000000
  0.042734  0.074017  0.000000      6.000000
  0.056978  0.082241  0.000000     12.000000
  0.071223  0.090465  0.000000     12.000000
  0.085467  0.098689  0.000000     12.000000
  0.099712  0.106913  0.000000     12.000000
  0.113956  0.115137  0.000000     12.000000
  0.056978  0.098689  0.000000      6.000000
  0.071223  0.106913  0.000000     12.000000
  0.085467  0.115137  0.000000     12.000000
  0.099712  0.123361  0.000000     12.000000
  0.113956  0.131585  0.000000      6.000000
  0.071223  0.123361  0.000000      6.000000
  0.085467  0.131585  0.000000     12.000000
  0.099712  0.139809  0.000000     12.000000
  0.085467  0.148033  0.000000      6.000000
  0.099712  0.156258  0.000000      6.000000

 I would recommend the setting:
   dimension x,y,z NGX =    29 NGY =   29 NGZ =  214
 SYSTEM =  unknown system
 POSCAR =  Surf-mp-24081

 Startparameter for this run:
   NWRITE =      2    write-flag & timer
   PREC   = accura    normal or accurate (medium, high low for compatibility)
   ISTART =      0    job   : 0-new  1-cont  2-samecut
   ICHARG =      2    charge: 1-file 2-atom 10-const
   ISPIN  =      2    spin polarized calculation?
   LNONCOLLINEAR =      F non collinear calculations
   LSORBIT =      F    spin-orbit coupling
   INIWAV =      1    electr: 0-lowe 1-rand  2-diag
   LASPH  =      F    aspherical Exc in radial PAW
   METAGGA=      F    non-selfconsistent MetaGGA calc.

 Electronic Relaxation 1
   ENCUT  =  650.0 eV  47.77 Ry    6.91 a.u.   7.30  7.30 53.51*2*pi/ulx,y,z
   ENINI  =  650.0     initial cutoff
   ENAUG  =  443.1 eV  augmentation charge cutoff
   NELM   =    500;   NELMIN=  2; NELMDL= -5     # of ELM steps
   EDIFF  = 0.1E-06   stopping-criterion for ELM
   LREAL  =      F    real-space projection
   NLSPLINE    = F    spline interpolate recip. space projectors
   LCOMPAT=      F    compatible to vasp.4.4
   GGA_COMPAT  = T    GGA compatible to vasp.4.4-vasp.4.6
   LMAXPAW     = -100 max onsite density
   LMAXMIX     =    2 max onsite mixed and CHGCAR
   VOSKOWN=      0    Vosko Wilk Nusair interpolation
   ROPT   =    0.00000   0.00000   0.00000
 Ionic relaxation
   EDIFFG = -.1E-02   stopping-criterion for IOM
   NSW    =    500    number of steps for IOM
   NBLOCK =      1;   KBLOCK =    500    inner block; outer block
   IBRION =      2    ionic relax: 0-MD 1-quasi-New 2-CG
   NFREE  =      1    steps in history (QN), initial steepest desc. (CG)
   ISIF   =      3    stress and relaxation
   IWAVPR =     11    prediction:  0-non 1-charg 2-wave 3-comb
   ISYM   =      2    0-nonsym 1-usesym 2-fastsym
   LCORR  =      T    Harris-Foulkes like correction to forces

   POTIM  = 0.5000    time-step for ionic-motion
   TEIN   =    0.0    initial temperature
   TEBEG  =    0.0;   TEEND  =   0.0 temperature during run
   SMASS  =  -3.00    Nose mass-parameter (am)
[...]
     28       2.0298      0.00000

[...]

 soft charge-density along one line, spin component           1
         0         1         2         3         4         5         6         7         8         9
 total charge-density along one line

[...]

------------------------ aborting loop because EDIFF is reached ----------------------------------------

 total charge

# of ion     s       p       d       tot
  1        2.158   6.150   1.122   9.430
  2        2.158   6.150   1.122   9.430
  3        0.581   0.009   0.000   0.590
  4        0.581   0.009   0.000   0.590
  5        1.629   3.576   0.000   5.204
  6        1.629   3.576   0.000   5.204
tot        8.736  19.469   2.244  30.449

 magnetization (x)

[...]

  FORCE on cell =-STRESS in cart. coord.  units (eV):
  Direction    XX          YY          ZZ          XY          YZ          ZX
  Alpha Z    46.40625    46.40625    46.40625
  Ewald   13123.38536 13123.38552-14798.95373     0.00020     0.00003     0.00005
  Hartree 13849.94501 13849.94501-13373.63172    -0.00001     0.00002     0.00000
  E(xc)    -167.19637  -167.19639  -166.70734    -0.00002    -0.00000     0.00000
  Local  -27457.72202-27457.72213 27689.55577    -0.00006    -0.00004    -0.00004
  n-local    53.37353    55.01024    54.90213    -3.43094     0.54469     2.28249
  augment    20.81373    20.81374    20.34479     0.00000     0.00001    -0.00002
  Kinetic   528.15627   531.04224   527.94398    -4.87445    -0.68011    -4.43909
  Fock        0.00000     0.00000     0.00000     0.00000     0.00000     0.00000
  Total      -0.57689    -0.57689    -0.13987     0.00000    -0.00000     0.00000
  in kB      -3.36486    -3.36486    -0.81580     0.00000    -0.00000     0.00000

 VOLUME and BASIS-vectors are now :
  energy-cutoff  :      650.00
  volume of cell :      274.69
      direct lattice vectors                 reciprocal lattice vectors
     3.510121000  0.000000000  0.000000000     0.284890464  0.164481631  0.000000000
    -1.755061000  3.039854000  0.000000000     0.000000000  0.328963167  0.000000000
     0.000000000  0.000000000 25.743165000     0.000000000  0.000000000  0.038845262

[...]

 FORCES acting on ions
    electron-ion (+dipol)            ewald-force                    non-local-force                 convergence-correction
   -.187E-02 0.108E-02 0.868E+03   -.277E-03 0.162E-03 -.867E+03   0.694E-17 0.000E+00 -.167E+01   0.240E-08 -.139E-08 -.115E-02
   0.187E-02 -.108E-02 -.868E+03   0.277E-03 -.162E-03 0.867E+03   -.694E-17 0.000E+00 0.167E+01   -.240E-08 0.139E-08 0.115E-02
   -.302E-04 0.216E-04 -.528E+02   -.139E-03 0.737E-04 0.530E+02   0.000E+00 0.867E-18 -.242E+00   0.781E-10 -.450E-10 0.636E-04
   0.302E-04 -.216E-04 0.528E+02   0.139E-03 -.737E-04 -.530E+02   0.694E-17 -.867E-18 0.242E+00   -.781E-10 0.450E-10 -.636E-04
   -.147E-04 0.164E-04 0.127E+04   0.755E-04 -.564E-04 -.127E+04   -.139E-16 0.139E-16 0.223E+01   -.110E-09 0.649E-10 -.118E-02
   0.147E-04 -.164E-04 -.127E+04   -.755E-04 0.564E-04 0.127E+04   0.694E-17 -.139E-16 -.223E+01   0.110E-09 -.649E-10 0.118E-02
   -.737E-12 -.295E-12 0.465E-10   -.301E-13 0.143E-13 0.227E-12   0.000E+00 0.000E+00 -.444E-15   0.697E-14 -.126E-14 0.553E-12

 POSITION                                       TOTAL-FORCE (eV/Angst)
      1.75506      1.01328     11.61496         0.000000     -0.000000     -0.105106
     -0.00000      2.02657     14.12821        -0.000000      0.000000      0.105106
      1.75506      1.01328     13.61909         0.000000     -0.000000     -0.021086
     -0.00000      2.02657     12.12408        -0.000000      0.000000      0.021086
      0.00000      0.00000     10.00001         0.000000      0.000000      0.065884
      0.00000      0.00000     15.74316         0.000000      0.000000     -0.065884
    total drift:                               -0.000000     -0.000000      0.000000

  FREE ENERGIE OF THE ION-ELECTRON SYSTEM (eV)
  free  energy   TOTEN  =       -22.52776223 eV

  energy  without entropy=      -22.50678537  energy(sigma->0) =      -22.51727380

[...]

 d Force = 0.6535072E-03[-0.221E-03, 0.153E-02]  d Energy = 0.3531091E-02-0.288E-02
 d Force = 0.5838880E+00[ 0.584E+00, 0.583E+00]  d Ewald  =-0.1220434E+03 0.123E+03

 Steepest descent step on ions:
 trial-energy change:   -0.003531  1 .order   -0.003662   -0.006879   -0.000444
  (g-gl).g = 0.688E-02      g.g   = 0.688E-02  gl.gl    = 0.000E+00
 g(Force)  = 0.153E-02   g(Stress)= 0.535E-02 ortho     = 0.000E+00
 gamma     =   0.00000
 trial     =   1.00000
 opt step  =   1.07936  (harmonic =   1.06895) maximal distance =0.00547301
 next E    =   -22.531311   (d E  =  -0.00355)

[...]

 d Force =-0.2313401E-04[-0.288E-04,-0.175E-04]  d Energy = 0.2731756E-04-0.505E-04
 d Force = 0.4638621E-01[ 0.464E-01, 0.464E-01]  d Ewald  =-0.9761880E+01 0.981E+01

[...]

 d Force = 0.4313329E-05[ 0.420E-05, 0.442E-05]  d Energy = 0.6037708E-04-0.561E-04
 d Force =-0.7135297E-02[-0.714E-02,-0.714E-02]  d Ewald  = 0.1502254E+01-0.151E+01

[...]

 d Force = 0.2447446E-03[ 0.193E-03, 0.296E-03]  d Energy = 0.4447927E-03-0.200E-03
 d Force = 0.3992935E+01[ 0.400E+01, 0.399E+01]  d Ewald  =-0.1001787E+02 0.140E+02

 Conjugate gradient step on ions:
 trial-energy change:   -0.000445  1 .order   -0.000269   -0.000335   -0.000202
  (g-gl).g = 0.333E-03      g.g   = 0.331E-03  gl.gl    = 0.688E-02
 g(Force)  = 0.309E-03   g(Stress)= 0.219E-04 ortho     =-0.204E-05
 gamma     =   0.04835
 trial     =   1.01343
 opt step  =   2.55875  (harmonic =   2.55875) maximal distance =0.00485791
 next E    =   -22.531804   (d E  =  -0.00042)

[...]

 d Force = 0.1736330E-03[ 0.522E-04, 0.295E-03]  d Energy = 0.5619953E-03-0.388E-03
 d Force = 0.6097688E+01[ 0.610E+01, 0.609E+01]  d Ewald  =-0.1530150E+02 0.214E+02

[...]

 d Force = 0.1681103E-03[ 0.122E-03, 0.214E-03]  d Energy =-0.1305544E-03 0.299E-03
 d Force = 0.8257070E+01[ 0.826E+01, 0.826E+01]  d Ewald  = 0.8966099E+01-0.709E+00

 Conjugate gradient step on ions:
 trial-energy change:    0.000131  1 .order   -0.000169   -0.000216   -0.000123
  (g-gl).g = 0.168E-03      g.g   = 0.165E-03  gl.gl    = 0.331E-03
 g(Force)  = 0.145E-03   g(Stress)= 0.202E-04 ortho     =-0.318E-05
 gamma     =   0.50895
 trial     =   1.32250
 opt step  =   3.05581  (harmonic =   3.05581) maximal distance =0.00470334
 next E    =   -22.532638   (d E  =  -0.00025)

[...]

 d Force = 0.7281828E-04[-0.141E-04, 0.160E-03]  d Energy =-0.1836107E-03 0.256E-03
 d Force = 0.1081969E+02[ 0.108E+02, 0.108E+02]  d Ewald  = 0.1174819E+02-0.929E+00

[...]

 d Force = 0.9628468E-06[ 0.758E-06, 0.117E-05]  d Energy = 0.1430434E-03-0.142E-03
 d Force =-0.8987435E+00[-0.899E+00,-0.899E+00]  d Ewald  =-0.9758447E+00 0.771E-01

[...]

 d Force =-0.9009811E-06[-0.314E-05, 0.133E-05]  d Energy =-0.1424869E-05 0.524E-06
 d Force =-0.1581020E+01[-0.158E+01,-0.158E+01]  d Ewald  =-0.1716663E+01 0.136E+00

[...]

 d Force = 0.1001278E-06[-0.269E-06, 0.469E-06]  d Energy = 0.2119230E-03-0.212E-03
 d Force = 0.3013896E+00[ 0.301E+00, 0.301E+00]  d Ewald  = 0.3272464E+00-0.259E-01

[...]

 d Force = 0.6171979E-07[-0.108E-07, 0.134E-06]  d Energy =-0.5448678E-04 0.545E-04
 d Force =-0.1506945E+00[-0.151E+00,-0.151E+00]  d Ewald  =-0.1636229E+00 0.129E-01

[...]

 Conjugate gradient step on ions:
 trial-energy change:    0.000031  1 .order   -0.000014   -0.000016   -0.000011
  (g-gl).g = 0.782E-05      g.g   = 0.101E-04  gl.gl    = 0.165E-03
 g(Force)  = 0.980E-05   g(Stress)= 0.284E-06 ortho     = 0.279E-06
 gamma     =   0.04735
 trial     =   1.62961
 opt step  =   4.98927  (harmonic =   4.98927) maximal distance =0.00168715
 next E    =   -22.532220   (d E  =  -0.00003)

[...]

 d Force = 0.8169042E-05[-0.595E-05, 0.223E-04]  d Energy = 0.1081711E-03-0.100E-03
 d Force = 0.3991645E+01[ 0.399E+01, 0.399E+01]  d Ewald  = 0.1062008E+01 0.293E+01

[...]

 d Force = 0.7459460E-06[ 0.189E-06, 0.130E-05]  d Energy = 0.7130891E-05-0.638E-05
 d Force =-0.8738007E+00[-0.874E+00,-0.874E+00]  d Ewald  =-0.2324901E+00-0.641E+00

[...]

 d Force = 0.3050160E-08[-0.320E-07, 0.381E-07]  d Energy =-0.1497104E-04 0.150E-04
 d Force =-0.1759787E+00[-0.176E+00,-0.176E+00]  d Ewald  =-0.4682166E-01-0.129E+00

[...]

 d Force = 0.8188141E-08[ 0.609E-08, 0.103E-07]  d Energy =-0.3957082E-05 0.397E-05
 d Force = 0.5660641E-01[ 0.566E-01, 0.566E-01]  d Ewald  = 0.1506093E-01 0.415E-01

[...]

 d Force = 0.1798031E-07[-0.951E-06, 0.987E-06]  d Energy =-0.1034991E-05 0.105E-05
 d Force = 0.6649089E-01[ 0.665E-01, 0.665E-01]  d Ewald  = 0.3825976E+00-0.316E+00

 Conjugate gradient step on ions:
 trial-energy change:    0.000001  1 .order    0.000000   -0.000001    0.000001
  (g-gl).g = 0.312E-06      g.g   = 0.469E-06  gl.gl    = 0.101E-04
 g(Force)  = 0.458E-06   g(Stress)= 0.108E-07 ortho     = 0.740E-07
 gamma     =   0.03088
 trial     =   2.13437
 opt step  =   1.05768  (harmonic =   1.05768) maximal distance =0.00008745
 next E    =   -22.532260   (d E  =  -0.00000)

 FEWALD executed in parallel

[...]

 Broyden mixing:
  rms(total) = 0.57599E-03    rms(broyden)= 0.36777E-03
  rms(prec ) = 0.40031E-03
  weight for this iteration     100.00
  WARNING: grid for Broyden might be to small

[...]

 eigenvalue-minimisations  :  3816
 total energy-change (2. order) :-0.3567939E-06  (-0.4896873E-07)
 number of electron      38.0000002 magnetization       0.0007897
 augmentation part        4.3781149 magnetization       0.0007905

[...]

 Broyden mixing:
  rms(total) = 0.14110E-03    rms(broyden)= 0.14110E-03
  rms(prec ) = 0.16438E-03
  weight for this iteration     100.00

 eigenvalues of (default mixing * dielectric matrix)
  average eigenvalue GAMMA=   2.6508
 31.1505 31.1505  6.7910  3.3527  3.3527  3.2322  3.2322  2.8658  1.8750  1.8750
  1.4782  1.4782  0.8189  0.8189  1.1070  1.1070  0.1335  1.1674  0.8377  0.8377
  0.9354  0.0004  0.0001  0.0000  0.6046  0.6046  0.3945  0.3945  0.6725  0.6725
  0.5672  0.5672  0.3540  0.6339  0.6175  0.5423  0.5423  0.4425  0.4425  0.4996
  0.5325

[...]

----------------------------------------- Iteration   20(  48)  ---------------------------------------

 eigenvalue-minimisations  :  3628
 total energy-change (2. order) : 0.4487083E-07  (-0.2962455E-07)
 number of electron      38.0000002 magnetization       0.0007937
 augmentation part        4.3781147 magnetization       0.0007939

 Free energy of the ion-electron system (eV)
  alpha Z        PSCENC =        47.00114556
  Ewald energy   TEWEN  =     11582.56315206
  -Hartree energ DENC   =    -14463.70868718
  -exchange      EXHF   =         0.00000000
  -V(xc)+E(xc)   XCENC  =       147.79522740
  PAW double counting   =      3508.61549222    -3502.62177022
  entropy T*S    EENTRO =        -0.02210564
  eigenvalues    EBANDS =      -749.90013639
  atomic energy  EATOM  =      3407.74547440
  Solvation  Ediel_sol  =         0.00000000
  free energy    TOTEN  =       -22.53220779 eV

  energy without entropy =      -22.51010215  energy(sigma->0) =      -22.52115497

 average (electrostatic) potential at core
  the test charge radii are     1.0854  0.5201  0.9406
  (the norm of the test charge is              1.0000)
       1 -53.1753       2 -53.1753       3 -39.6898       4 -39.6898       5 -98.3659
       6 -98.3659

 E-fermi :  -1.1088     XC(G=0):  -4.0507     alpha+bet : -3.5088

[...]

 spin component 2

[...]

 k-point    44 :       0.3500    0.3000    0.0000
  band No.  band energies     occupation
      1     -50.9382      1.00000
      2     -50.9360      1.00000
      3     -30.1714      1.00000
      4     -30.1705      1.00000
      5     -30.1379      1.00000
      6     -30.0641      1.00000
      7     -30.0134      1.00000
      8     -30.0085      1.00000
      9     -17.8509      1.00000
     10     -17.8496      1.00000
     11      -7.7338      1.00000
     12      -7.5925      1.00000
     13      -7.2505      1.00000
     14      -7.1655      1.00000
     15      -6.6189      1.00000
     16      -6.5788      1.00000
     17      -6.4949      1.00000
     18      -6.4586      1.00000
     19      -2.5727      1.00000
     20      -0.0346      0.00000
     21      -0.0077      0.00000
     22       0.3882      0.00000
     23       0.6920      0.00000
     24       0.7248      0.00000
     25       0.9927      0.00000
     26       1.8423      0.00000
     27       2.3683      0.00000
     28       2.4384      0.00000

[...]

 soft charge-density along one line, spin component           2
         0         1         2         3         4         5         6         7         8         9
 total charge-density along one line

------------------------ aborting loop because EDIFF is reached ----------------------------------------

[...]

  FORCE on cell =-STRESS in cart. coord.  units (eV):
  Direction    XX          YY          ZZ          XY          YZ          ZX
  Alpha Z    47.00115    47.00115    47.00115
  Ewald   13265.43003 13265.43018-14948.29751     0.00019     0.00003     0.00005
  Hartree 13990.90278 13990.90277-13518.10923    -0.00001     0.00002     0.00000
  E(xc)    -167.29284  -167.29285  -166.80759    -0.00001    -0.00000    -0.00000
  Local  -27741.33584-27741.33594 27982.82860    -0.00005    -0.00005    -0.00004
  n-local    53.45521    55.08519    54.97304    -3.48572     0.55986     2.23447
  augment    20.78971    20.78968    20.32399    -0.00003     0.00001    -0.00002
  Kinetic   528.71367   531.75415   528.10204    -5.04912    -0.72970    -4.44836
  Fock        0.00000     0.00000     0.00000     0.00000     0.00000     0.00000
  Total      -0.00091    -0.00091     0.01450     0.00000    -0.00000    -0.00000
  in kB      -0.00539    -0.00539     0.08564     0.00000    -0.00000    -0.00000

 VOLUME and BASIS-vectors are now :
  energy-cutoff  :      650.00
  volume of cell :      271.21
      direct lattice vectors                 reciprocal lattice vectors
     3.487836232  0.000000004  0.000000000     0.286710709  0.165532550  0.000000000
    -1.743918610  3.020554822  0.000000000    -0.000000000  0.331065006  0.000000000
     0.000000000  0.000000000 25.743165000     0.000000000  0.000000000  0.038845262

  length of vectors
     3.487836232  3.487836515 25.743165000     0.331065032  0.331065006  0.038845262

 FORCES acting on ions
    electron-ion (+dipol)            ewald-force                    non-local-force                 convergence-correction
   -.185E-02 0.107E-02 0.878E+03   -.273E-03 0.160E-03 -.877E+03   -.208E-16 0.694E-17 -.167E+01   0.375E-09 -.250E-09 0.198E-02
   0.185E-02 -.107E-02 -.878E+03   0.273E-03 -.160E-03 0.877E+03   0.278E-16 -.694E-17 0.167E+01   -.375E-09 0.250E-09 -.198E-02
   -.299E-04 0.214E-04 -.519E+02   -.138E-03 0.734E-04 0.521E+02   -.304E-17 0.867E-18 -.202E+00   0.165E-10 -.119E-10 -.122E-03
   0.299E-04 -.214E-04 0.519E+02   0.138E-03 -.734E-04 -.521E+02   -.434E-18 -.867E-18 0.202E+00   -.165E-10 0.119E-10 0.122E-03
   -.150E-04 0.164E-04 0.129E+04   0.758E-04 -.565E-04 -.129E+04   -.347E-17 0.694E-17 0.213E+01   -.191E-10 0.112E-10 0.169E-02
   0.150E-04 -.164E-04 -.129E+04   -.758E-04 0.565E-04 0.129E+04   0.000E+00 -.694E-17 -.213E+01   0.191E-10 -.112E-10 -.169E-02
   -.924E-12 0.106E-11 0.601E-10   -.767E-14 0.193E-13 0.000E+00   0.000E+00 0.000E+00 0.888E-15   0.500E-14 0.203E-14 0.854E-12

 POSITION                                       TOTAL-FORCE (eV/Angst)
      1.74392      1.00685     11.60569        -0.000000      0.000000     -0.000450
     -0.00000      2.01370     14.13747         0.000000     -0.000000      0.000450
      1.74392      1.00685     13.61132         0.000000      0.000000      0.000011
     -0.00000      2.01370     12.13185         0.000000     -0.000000     -0.000011
     -0.00000      0.00000      9.99299         0.000000      0.000000     -0.000297
     -0.00000     -0.00000     15.75017         0.000000     -0.000000      0.000297
    total drift:                               -0.000000      0.000000      0.000000

  FREE ENERGIE OF THE ION-ELECTRON SYSTEM (eV)
  free  energy   TOTEN  =       -22.53220779 eV

  energy  without entropy=      -22.51010215  energy(sigma->0) =      -22.52115497

 d Force = 0.2581062E-06[ 0.366E-07, 0.480E-06]  d Energy =-0.5128086E-04 0.515E-04
 d Force =-0.3354200E-01[-0.335E-01,-0.335E-01]  d Ewald  =-0.1930014E+00 0.159E+00

 reached required accuracy - stopping structural energy minimisation

 total charge

[...]

 magnetization (x)

# of ion     s       p       d       tot
  1       -0.000  -0.000   0.000   0.000
  2       -0.000  -0.000   0.000   0.000
  3       -0.000   0.000   0.000  -0.000
  4       -0.000   0.000   0.000  -0.000
  5       -0.000   0.000   0.000   0.000
  6       -0.000   0.000   0.000   0.000
tot       -0.000   0.000   0.000   0.000