 vasp.5.4.1 24Jun15 (build Dec 08 2016 12:24:04) complex

 executed on           IFC91_ompi date 2018.04.12  04:12:40

 INCAR:
 POTCAR:    PAW_PBE Bi 08Apr2002
 POTCAR:    PAW_PBE I 08Apr2002

 POTCAR:    PAW_PBE Bi 08Apr2002
   VRHFIN =Bi:

   TITEL  = PAW_PBE Bi 08Apr2002
   POMASS =  208.980; ZVAL   =    5.000    mass and valenz
   ENMAX  =  105.037; ENMIN  =   78.777 eV

 POTCAR:    PAW_PBE I 08Apr2002
   VRHFIN =I : s2p5

   TITEL  = PAW_PBE I 08Apr2002
   POMASS =  126.904; ZVAL   =    7.000    mass and valenz
   ENMAX  =  175.647; ENMIN  =  131.735 eV

  PAW_PBE Bi 08Apr2002                  :
  PAW_PBE I 08Apr2002                   :

 POSCAR: Surf-mp-569157
  positions in direct lattice
 exchange correlation table for  LEXCH =       42
   RHO(1)=    0.500       N(1)  =     2000
   RHO(2)=  100.500       N(2)  =     4000

 ion  position               nearest neighbor table
   1  0.667  0.333  0.077-   5 3.12   7 3.12   8 3.12   4 3.12   6 3.12   3 3.12
   2  0.333  0.667  0.077-   5 3.12   8 3.12   7 3.12   4 3.12   3 3.12   6 3.12
   3  0.000  0.355  0.000-   2 3.12   1 3.12
   4  0.645  0.645  0.000-   1 3.12   2 3.12
   5  0.355  0.355  0.154-   1 3.12   2 3.12
   6  0.355  0.000  0.000-   1 3.12   2 3.12
   7  0.000  0.645  0.154-   1 3.12   2 3.12
   8  0.645  0.000  0.154-   2 3.12   1 3.12

  LATTYP: Found a hexagonal cell.
 ALAT       =     7.8292280000
 C/A-ratio  =     3.0207070225

  Lattice vectors:

 A1 = (   3.9146140000,  -6.7803100000,   0.0000000000)
 A2 = (   3.9146140000,   6.7803100000,   0.0000000000)
 A3 = (   0.0000000000,   0.0000000000,  23.6498040000)

Analysis of symmetry for initial positions (statically):
 Subroutine PRICEL returns:
 Original cell was already a primitive cell.

 Routine SETGRP: Setting up the symmetry group for a
 hexagonal supercell.

 Subroutine GETGRP returns: Found 12 space group operations
 (whereof  6 operations were pure point group operations)
 out of a pool of 24 trial point group operations.

The static configuration has the point symmetry C_3v.
 The point group associated with its full space group is D_3d.

Analysis of symmetry for dynamics (positions and initial velocities):
 Subroutine PRICEL returns:
 Original cell was already a primitive cell.

 Routine SETGRP: Setting up the symmetry group for a
 hexagonal supercell.

 Subroutine GETGRP returns: Found 12 space group operations
 (whereof  6 operations were pure point group operations)
 out of a pool of 24 trial point group operations.

The dynamic configuration has the point symmetry C_3v.
 The point group associated with its full space group is D_3d.

Analysis of magnetic symmetry:
 Subroutine PRICEL returns:
 Original cell was already a primitive cell.

 Subroutine MAGSYM returns: Found 12 space group operations
 (whereof  6 operations were pure point group operations)
 out of a pool of 12 trial space group operations
 (whereof  6 operations were pure point group operations)
 and found also     1 'primitive' translations

The magnetic configuration has the point symmetry C_3v.
 The point group associated with its full space group is D_3d.

 KPOINTS: Automatic kpoint scheme

Automatic generation of k-mesh.
Space group operators:
 irot       det(A)        alpha          n_x          n_y          n_z        tau_x        tau_y        tau_z
    1     1.000000     0.000000     1.000000     0.000000     0.000000     0.000000     0.000000     0.000000
    2     1.000000   120.000000     0.000000     0.000000    -1.000000     0.000000     0.000000     0.000000
    3     1.000000   120.000000     0.000000     0.000000     1.000000     0.000000     0.000000     0.000000
    4    -1.000000   180.000000     0.000000     1.000000     0.000000     0.000000     0.000000     0.000000
    5    -1.000000   180.000000     0.866025     0.500000     0.000000     0.000000     0.000000     0.000000
    6    -1.000000   180.000000     0.866025    -0.500000     0.000000     0.000000     0.000000     0.000000
    7    -1.000000     0.000000     1.000000     0.000000     0.000000     0.000000     0.000000     0.154328
    8    -1.000000   120.000000     0.000000     0.000000    -1.000000     0.000000     0.000002     0.154328
    9    -1.000000   120.000000     0.000000     0.000000     1.000000     0.000000     0.000000     0.154328
   10     1.000000   180.000000     0.000000     1.000000     0.000000     0.000000     0.000000     0.154328
   11     1.000000   180.000000     0.866025     0.500000     0.000000     0.000000     0.000000     0.154328
   12     1.000000   180.000000     0.866025    -0.500000     0.000000     0.000000     0.000002     0.154328

 Subroutine IBZKPT returns following result:

 Found      4 irreducible k-points:

 Following reciprocal coordinates:
            Coordinates               Weight
  0.000000  0.000000  0.000000      1.000000
  0.250000  0.000000  0.000000      6.000000
  0.500000  0.000000  0.000000      3.000000
  0.250000  0.250000  0.000000      6.000000

 Following cartesian coordinates:
            Coordinates               Weight
  0.000000  0.000000  0.000000      1.000000
  0.031932 -0.018436  0.000000      6.000000
  0.063863 -0.036871  0.000000      3.000000
  0.063863  0.000000  0.000000      6.000000

 I would recommend the setting:
   dimension x,y,z NGX =    57 NGY =   57 NGZ =  172
 SYSTEM =  unknown system
 POSCAR =  Surf-mp-569157

 Startparameter for this run:
   NWRITE =      2    write-flag & timer
   PREC   = accura    normal or accurate (medium, high low for compatibility)
   ISTART =      0    job   : 0-new  1-cont  2-samecut
   ICHARG =      2    charge: 1-file 2-atom 10-const
   ISPIN  =      2    spin polarized calculation?
   LNONCOLLINEAR =      F non collinear calculations
   LSORBIT =      F    spin-orbit coupling
   INIWAV =      1    electr: 0-lowe 1-rand  2-diag
   LASPH  =      F    aspherical Exc in radial PAW
   METAGGA=      F    non-selfconsistent MetaGGA calc.

 Electronic Relaxation 1
   ENCUT  =  500.0 eV  36.75 Ry    6.06 a.u.  14.27 14.27 43.12*2*pi/ulx,y,z
   ENINI  =  500.0     initial cutoff
   ENAUG  =  370.1 eV  augmentation charge cutoff
   NELM   =    500;   NELMIN=  2; NELMDL= -5     # of ELM steps
   EDIFF  = 0.1E-06   stopping-criterion for ELM
   LREAL  =      F    real-space projection
   NLSPLINE    = F    spline interpolate recip. space projectors
   LCOMPAT=      F    compatible to vasp.4.4
   GGA_COMPAT  = T    GGA compatible to vasp.4.4-vasp.4.6
   LMAXPAW     = -100 max onsite density
   LMAXMIX     =    2 max onsite mixed and CHGCAR
   VOSKOWN=      0    Vosko Wilk Nusair interpolation
   ROPT   =    0.00000   0.00000
 Ionic relaxation
   EDIFFG = -.1E-02   stopping-criterion for IOM
   NSW    =    500    number of steps for IOM
   NBLOCK =      1;   KBLOCK =    500    inner block; outer block
   IBRION =      2    ionic relax: 0-MD 1-quasi-New 2-CG
   NFREE  =      1    steps in history (QN), initial steepest desc. (CG)
   ISIF   =      3    stress and relaxation
   IWAVPR =     11    prediction:  0-non 1-charg 2-wave 3-comb
   ISYM   =      2    0-nonsym 1-usesym 2-fastsym
   LCORR  =      T    Harris-Foulkes like correction to forces

   POTIM  = 0.5000    time-step for ionic-motion
   TEIN   =    0.0    initial temperature
   TEBEG  =    0.0;   TEEND  =   0.0 temperature during run
   SMASS  =  -3.00    Nose mass-parameter (am)
   estimated Nose-frequenzy (Omega)   =  0.10E-29 period in steps =****** mass=  -0.140E-26a.u.
   SCALEE = 1.0000    scale energy and forces
   NPACO  =    256;   APACO  = 16.0  distance and # of slots for P.C.
   PSTRESS=    0.0 pullay stress

  Mass of Ions in am
   POMASS = 208.98126.90
  Ionic Valenz
   ZVAL   =   5.00  7.00
  Atomic Wigner-Seitz radii
  virtual crystal weights
   VCA    =   1.00  1.00
   NELECT =      52.0000    total number of electrons
   NUPDOWN=      -1.0000    fix difference up-down

 DOS related values:
   EMIN   =  10.00;   EMAX   =-10.00  energy-range for DOS
   EFERMI =   0.00
   ISMEAR =     0;   SIGMA  =   0.20  broadening in eV -4-tet -1-fermi 0-gaus

 Electronic relaxation 2 (details)
   IALGO  =     38    algorithm
   LDIAG  =      T    sub-space diagonalisation (order eigenvalues)
   LSUBROT=      F    optimize rotation matrix (better conditioning)
   TURBO    =      0    0=normal 1=particle mesh
   IRESTART =      0    0=no restart 2=restart with 2 vectors
   NREBOOT  =      0    no. of reboots
   NMIN     =      0    reboot dimension
   EREF     =   0.00    reference energy to select bands
   IMIX   =      4    mixing-type and parameters
     AMIX     =   0.40;   BMIX     =  1.00
     AMIX_MAG =   1.60;   BMIX_MAG =  1.00
     AMIN     =   0.10
     WC   =   100.;   INIMIX=   1;  MIXPRE=   1;  MAXMIX= -45

 Intra band minimization:
   WEIMIN = 0.0010     energy-eigenvalue tresh-hold
   EBREAK =  0.63E-09  absolut break condition
   DEPER  =   0.30     relativ break condition

   TIME   =   0.40     timestep for ELM

  volume/ion in A,a.u.               =     156.93      1059.02
  Fermi-wavevector in a.u.,A,eV,Ry     =   0.566427  1.070392  4.365287  0.320840
  Thomas-Fermi vector in A             =   1.604818

 Write flags
   LWAVE  =      F    write WAVECAR
   LCHARG =      F    write CHGCAR
   LVTOT  =      F    write LOCPOT, total local potential
   LVHAR  =      T    write LOCPOT, Hartree potential only
   LELF   =      F    write electronic localiz. function (ELF)
   LORBIT =     11    0 simple, 1 ext, 2 COOP (PROOUT)

 Dipole corrections
   LMONO  =      F    monopole corrections only (constant potential shift)
   LDIPOL =      F    correct potential (dipole corrections)
   IDIPOL =      0    1-x, 2-y, 3-z, 4-all directions
   EPSILON=  1.0000000 bulk dielectric constant

 Exchange correlation treatment:
   GGA     =    BO    GGA type
   VOSKOWN=      0    Vosko Wilk Nusair interpolation
   LHFCALC =     F    Hartree Fock is set to
   LHFONE  =     F    Hartree Fock one center treatment
   AEXX    =    0.0000 exact exchange contribution

 vdW DFT:
   LUSE_VDW   =     T    switch on vdW DFT
   Zab_VDW    =-.8491    correlation parameter
   PARAM1     =0.1833
   PARAM2     =0.2200
   PARAM3     =0.0000

 Linear response parameters
   LEPSILON=     F    determine dielectric tensor
   LRPA    =     F    only Hartree local field effects (RPA)
   LNABLA  =     F    use nabla operator in PAW spheres
   LVEL    =     F    velocity operator in full k-point grid
   LINTERFAST=   F  fast interpolation
   KINTER  =     0    interpolate to denser k-point grid
   CSHIFT  =0.1000    complex shift for real part using Kramers Kronig
   OMEGAMAX=  -1.0    maximum frequency
   DEG_THRESHOLD= 0.2000000E-02 threshold for treating states as degnerate
   RTIME   =    0.100 relaxation time in fs

 Orbital magnetization related:
   ORBITALMAG=     F  switch on orbital magnetization
   LCHIMAG   =     F  perturbation theory with respect to B field
   DQ        =  0.001000  dq finite difference perturbation B field

 conjugate gradient relaxation of ions
 charge density and potential will be updated during run
 spin polarized calculation
 Variant of blocked Davidson
 Davidson routine will perform the subspace rotation
[...]

 magnetization (x)

[...]

  FORCE on cell =-STRESS in cart. coord.  units (eV):
  Direction    XX          YY          ZZ          XY          YZ          ZX
  Alpha Z     5.71901     5.71901     5.71901
  Ewald    4498.64925  4498.65150 -5713.43632    -0.00000     0.00000    -0.00001
  Hartree  4939.71748  4939.71699 -4714.66348     0.00000    -0.00000    -0.00000
  E(xc)    -210.36667  -210.36669  -209.24120    -0.00000     0.00000     0.00002
  Local  -10474.93970-10474.94060  9391.88232     0.00000     0.00000     0.00001
  n-local   989.84939   991.60707   990.40777     0.59114    -0.53823    -0.45701
  augment  -272.45035  -272.45031  -272.17001     0.00000     0.00000    -0.00018
  Kinetic   522.01752   521.78304   521.46506    -0.23775     0.29984     0.40188
  Fock        0.00000     0.00000     0.00000     0.00000     0.00000     0.00000
  Total      -1.04203    -1.04203    -0.03685     0.00000     0.00000    -0.00000
  in kB      -1.32983    -1.32983    -0.04703     0.00000     0.00000    -0.00000

 VOLUME and BASIS-vectors are now :
  energy-cutoff  :      500.00
  volume of cell :     1255.44
      direct lattice vectors                 reciprocal lattice vectors
     3.914614000 -6.780310000  0.000000000     0.127726514 -0.073742941  0.000000000
     3.914614000  6.780310000  0.000000000     0.127726514  0.073742941  0.000000000
     0.000000000  0.000000000 23.649804000     0.000000000  0.000000000  0.042283649

[...]

 FORCES acting on ions
    electron-ion (+dipol)            ewald-force                    non-local-force                 convergence-correction
   0.146E-04 -.226E-02 0.353E-03   0.614E-10 -.442E-03 0.379E-03   0.000E+00 -.173E-17 0.000E+00   0.145E-11 0.245E-09 -.154E-08
   0.146E-04 0.226E-02 0.353E-03   0.615E-10 0.442E-03 0.379E-03   0.000E+00 0.173E-17 -.108E-18   0.145E-11 -.245E-09 -.154E-08
   0.167E+02 0.289E+02 0.257E+03   -.175E+02 -.303E+02 -.260E+03   0.772E+00 0.134E+01 0.244E+01   -.192E-06 -.332E-06 -.849E-06
   -.334E+02 0.395E-11 0.257E+03   0.350E+02 -.799E-14 -.260E+03   -.154E+01 0.000E+00 0.244E+01   0.384E-06 -.648E-14 -.847E-06
   0.334E+02 -.119E-10 -.257E+03   -.350E+02 -.355E-14 0.260E+03   0.154E+01 0.000E+00 -.244E+01   -.384E-06 -.289E-14 0.836E-06
   0.167E+02 -.289E+02 0.257E+03   -.175E+02 0.303E+02 -.260E+03   0.772E+00 -.134E+01 0.244E+01   -.192E-06 0.332E-06 -.849E-06
   -.167E+02 -.289E+02 -.257E+03   0.175E+02 0.303E+02 0.260E+03   -.772E+00 -.134E+01 -.244E+01   0.192E-06 0.332E-06 0.838E-06
   -.167E+02 0.289E+02 -.257E+03   0.175E+02 -.303E+02 0.260E+03   -.772E+00 0.134E+01 -.244E+01   0.192E-06 -.332E-06 0.838E-06
   -.695E-04 -.375E-10 0.551E-01   0.142E-13 0.711E-14 -.568E-13   -.222E-15 0.222E-15 0.133E-14   -.708E-11 -.193E-13 -.357E-07

 POSITION                                       TOTAL-FORCE (eV/Angst)
      3.91461     -2.26009      1.82491        -0.000000     -0.000000      0.000000
      3.91461      2.26009      1.82491        -0.000000     -0.000000      0.000000
      1.39115      2.40955      0.00000        -0.031869     -0.055199      0.001817
      5.04692      0.00000      0.00000         0.063738     -0.000000      0.001817
      2.78230      0.00000      3.64980        -0.063738     -0.000000     -0.001817
      1.39115     -2.40955      0.00000        -0.031869      0.055199      0.001817
      2.52346      4.37076      3.64980         0.031869      0.055199     -0.001817
      2.52346     -4.37076      3.64980         0.031869     -0.055199     -0.001817
    total drift:                               -0.000070     -0.000000      0.055131

  FREE ENERGIE OF THE ION-ELECTRON SYSTEM (eV)
  free  energy   TOTEN  =        -2.68898536 eV

  energy  without entropy=       -2.68898536  energy(sigma->0) =       -2.68898536

[...]

 d Force = 0.1519917E-02[ 0.187E-02, 0.117E-02]  d Energy = 0.8017198E-02-0.650E-02
 d Force = 0.5049800E+00[ 0.505E+00, 0.505E+00]  d Ewald  =-0.5660695E+02 0.571E+02

 Steepest descent step on ions:
 trial-energy change:   -0.008017  1 .order   -0.009730   -0.014273   -0.005187
  (g-gl).g = 0.143E-01      g.g   = 0.143E-01  gl.gl    = 0.000E+00
 g(Force)  = 0.118E-02   g(Stress)= 0.131E-01 ortho     = 0.000E+00
 gamma     =   0.00000
 trial     =   1.00000
 opt step  =   1.57089  (harmonic =   1.57089) maximal distance =0.00483034
 next E    =    -2.700196   (d E  =  -0.01121)

[...]

 Conjugate gradient step on ions:
 trial-energy change:   -0.007905  1 .order   -0.007463   -0.007820   -0.007106
  (g-gl).g = 0.724E-02      g.g   = 0.709E-02  gl.gl    = 0.143E-01
 g(Force)  = 0.664E-02   g(Stress)= 0.456E-03 ortho     =-0.148E-03
 gamma     =   0.50742
 trial     =   1.11418
 opt step  =   4.45671  (harmonic =  12.19289) maximal distance =0.03422414
 next E    =    -2.740225   (d E  =  -0.04279)

[...]

 d Force = 0.4074295E-02[ 0.346E-02, 0.469E-02]  d Energy = 0.4983752E-02-0.909E-03
 d Force =-0.7646330E+01[-0.762E+01,-0.767E+01]  d Ewald  = 0.2785917E+02-0.355E+02

 Conjugate gradient step on ions:
 trial-energy change:   -0.004984  1 .order   -0.003742   -0.006511   -0.000973
  (g-gl).g = 0.944E-03      g.g   = 0.208E-02  gl.gl    = 0.709E-02
 g(Force)  = 0.136E-02   g(Stress)= 0.717E-03 ortho     = 0.420E-04
 gamma     =   0.13306
 trial     =   3.11970
 opt step  =   3.34408  (harmonic =   3.66774) maximal distance =0.01110362
 next E    =    -2.747262   (d E  =  -0.00502)

[...]

 eigenvalue-minimisations  :   400
 total energy-change (2. order) :-0.4442518E-07  ( 0.3647471E-11)
 number of electron      52.0000003 magnetization       0.0000000
 augmentation part      -13.1479300 magnetization       0.0000000

[...]

 d Force = 0.2414136E-02[ 0.224E-02, 0.259E-02]  d Energy = 0.2202519E-02 0.212E-03
 d Force =-0.7255523E+01[-0.726E+01,-0.725E+01]  d Ewald  =-0.9103592E+01 0.185E+01

[...]

 d Force = 0.5138249E-02[ 0.355E-02, 0.672E-02]  d Energy = 0.4382981E-02 0.755E-03
 d Force =-0.2181374E+02[-0.218E+02,-0.218E+02]  d Ewald  =-0.2738514E+02 0.557E+01

[...]

 d Force = 0.8902930E-03[-0.533E-02, 0.711E-02]  d Energy =-0.1499831E-02 0.239E-02
 d Force =-0.4384302E+02[-0.440E+02,-0.437E+02]  d Ewald  =-0.5510925E+02 0.113E+02

[...]

 d Force = 0.1169182E-02[-0.103E-03, 0.244E-02]  d Energy = 0.2369267E-02-0.120E-02
 d Force = 0.2015445E+02[ 0.201E+02, 0.202E+02]  d Ewald  = 0.2534817E+02-0.519E+01

[...]

 d Force = 0.2736169E-03[ 0.944E-04, 0.453E-03]  d Energy = 0.8507884E-03-0.577E-03
 d Force =-0.5000908E+01[-0.500E+01,-0.500E+01]  d Ewald  = 0.7758997E+01-0.128E+02

[...]

 d Force =-0.1398679E-05[-0.144E-05,-0.136E-05]  d Energy =-0.4959496E-05 0.356E-05
 d Force = 0.7241246E-01[ 0.724E-01, 0.724E-01]  d Ewald  =-0.1121788E+00 0.185E+00

[...]

 d Force =-0.4284321E-05[-0.457E-05,-0.400E-05]  d Energy =-0.1741437E-04 0.131E-04
 d Force = 0.2016141E+00[ 0.202E+00, 0.202E+00]  d Ewald  =-0.3123503E+00 0.514E+00

[...]

 Conjugate gradient step on ions:
 trial-energy change:   -0.000144  1 .order   -0.000104   -0.000111   -0.000097
  (g-gl).g = 0.420E-04      g.g   = 0.709E-04  gl.gl    = 0.573E-03
 g(Force)  = 0.490E-04   g(Stress)= 0.220E-04 ortho     =-0.691E-07
 gamma     =   0.07332
 trial     =   1.56342
 opt step  =   6.25369  (harmonic =  12.92224) maximal distance =0.00444377
 next E    =    -2.756114   (d E  =  -0.00046)

[...]

 d Force = 0.1823440E-03[ 0.139E-03, 0.226E-03]  d Energy = 0.3523376E-03-0.170E-03
 d Force = 0.2798255E+01[ 0.280E+01, 0.280E+01]  d Ewald  =-0.6034347E+01 0.883E+01

[...]

 d Force = 0.1012544E-03[-0.755E-04, 0.278E-03]  d Energy = 0.3306370E-03-0.229E-03
 d Force = 0.5593647E+01[ 0.559E+01, 0.559E+01]  d Ewald  =-0.1213643E+02 0.177E+02

[...]

 d Force = 0.5551842E-05[-0.135E-04, 0.247E-04]  d Energy =-0.5256017E-04 0.581E-04
 d Force =-0.1823000E+01[-0.182E+01,-0.182E+01]  d Ewald  = 0.3963358E+01-0.579E+01

[...]

 d Force =-0.1542977E-05[-0.604E-05, 0.296E-05]  d Energy = 0.1125519E-03-0.114E-03
 d Force = 0.5124730E+00[ 0.512E+00, 0.513E+00]  d Ewald  = 0.2630381E+01-0.212E+01

 Conjugate gradient step on ions:
 trial-energy change:   -0.000113  1 .order    0.000006   -0.000008    0.000020
  (g-gl).g = 0.259E-05      g.g   = 0.205E-05  gl.gl    = 0.709E-04
 g(Force)  = 0.623E-06   g(Stress)= 0.142E-05 ortho     = 0.178E-06
 gamma     =   0.03653
 trial     =   3.76636
 opt step  =   1.04113  (harmonic =   1.04113) maximal distance =0.00008064
 next E    =    -2.756432   (d E  =  -0.00000)

 FEWALD executed in parallel

[...]

 eigenvalue-minimisations  :   496
 total energy-change (2. order) : 0.3445771E-06  (-0.4906116E-08)
 number of electron      51.9999999 magnetization      -0.0000000
 augmentation part      -13.1521916 magnetization      -0.0000000

[...]

 Broyden mixing:
  rms(total) = 0.10398E-05    rms(broyden)= 0.10398E-05
  rms(prec ) = 0.12167E-05
  weight for this iteration     100.00

 eigenvalues of (default mixing * dielectric matrix)
  average eigenvalue GAMMA=   1.7083
  7.2434  2.8590  2.8590  2.0797  1.8078  1.8078  1.2562  1.2215  0.9337  0.9337
  0.9814  0.9744  0.6127  0.6127  0.5750  0.5750

[...]

----------------------------------------- Iteration   21(  18)  ---------------------------------------

 eigenvalue-minimisations  :   464
 total energy-change (2. order) :-0.8317329E-09  (-0.1734584E-08)
 number of electron      51.9999999 magnetization      -0.0000000
 augmentation part      -13.1521917 magnetization       0.0000000

 Free energy of the ion-electron system (eV)
  alpha Z        PSCENC =         6.08706923
  Ewald energy   TEWEN  =      3542.09744824
  -Hartree energ DENC   =     -5430.97418873
  -exchange      EXHF   =         0.00000000
  -V(xc)+E(xc)   XCENC  =      -305.48799948
  PAW double counting   =      2824.42376050    -2417.06216828
  entropy T*S    EENTRO =        -0.00000000
  eigenvalues    EBANDS =      -439.28656017
  atomic energy  EATOM  =      2217.44617414
  Solvation  Ediel_sol  =         0.00000000
  free energy    TOTEN  =        -2.75646456 eV

  energy without entropy =       -2.75646456  energy(sigma->0) =       -2.75646456

 average (electrostatic) potential at core
  the test charge radii are     1.4024  1.1875
  (the norm of the test charge is              1.0000)
       1 -71.1741       2 -71.1741       3 -98.7152       4 -98.7154       5 -98.7146
       6 -98.7152       7 -98.7145       8 -98.7145

 E-fermi :  -3.4196     XC(G=0):  -3.1235     alpha+bet : -2.4022

[...]

 spin component 2

[...]

 k-point     4 :       0.2500    0.2500    0.0000
  band No.  band energies     occupation
      1     -16.3098      1.00000
      2     -15.9328      1.00000
      3     -15.4118      1.00000
      4     -15.3602      1.00000
      5     -15.2754      1.00000
      6     -15.2111      1.00000
      7     -13.7391      1.00000
      8     -13.3465      1.00000
      9      -7.2643      1.00000
     10      -7.2400      1.00000
     11      -6.8392      1.00000
     12      -6.6344      1.00000
     13      -6.2713      1.00000
     14      -6.1990      1.00000
     15      -5.6154      1.00000
     16      -5.3859      1.00000
     17      -5.1317      1.00000
     18      -5.0785      1.00000
     19      -5.0294      1.00000
     20      -4.8928      1.00000
     21      -4.8920      1.00000
     22      -4.6764      1.00000
     23      -4.5953      1.00000
     24      -4.5001      1.00000
     25      -4.4462      1.00000
     26      -4.4054      1.00000
     27      -1.5455      0.00000
     28      -1.3378      0.00000
     29      -1.1267      0.00000
     30      -1.1154      0.00000
     31      -0.8840      0.00000
     32      -0.7269      0.00000
     33       1.9513      0.00000
     34       1.9651      0.00000
     35       2.0152      0.00000
     36       2.1332      0.00000
     37       2.4508      0.00000
     38       2.6733      0.00000
     39       2.6935      0.00000
     40       2.7503      0.00000

[...]

 soft charge-density along one line, spin component           2
         0         1         2         3         4         5         6         7         8         9
 total charge-density along one line

------------------------ aborting loop because EDIFF is reached ----------------------------------------

[...]

  FORCE on cell =-STRESS in cart. coord.  units (eV):
  Direction    XX          YY          ZZ          XY          YZ          ZX
  Alpha Z     6.08707     6.08707     6.08707
  Ewald    4818.89236  4818.89378 -6095.69115    -0.00000     0.00000    -0.00001
  Hartree  5244.35070  5244.35039 -5057.72693     0.00000    -0.00000    -0.00000
  E(xc)    -210.62259  -210.62261  -209.35536    -0.00000     0.00000     0.00001
  Local  -11100.40405-11100.40455 10116.37256    -0.00000    -0.00000     0.00001
  n-local   990.33981   992.54789   990.91018     0.71110    -0.72704    -0.60389
  augment  -272.57786  -272.57786  -272.17768     0.00000    -0.00000    -0.00013
  Kinetic   523.16729   522.49096   521.56397    -0.51008     0.29738     0.41664
  Fock        0.00000     0.00000     0.00000     0.00000     0.00000     0.00000
  Total      -0.00110    -0.00110    -0.01734     0.00000     0.00000     0.00000
  in kB      -0.00150    -0.00150    -0.02356     0.00000     0.00000     0.00000

 VOLUME and BASIS-vectors are now :
  energy-cutoff  :      500.00
  volume of cell :     1179.53
      direct lattice vectors                 reciprocal lattice vectors
     3.794420261 -6.572128369  0.000000000     0.131772436 -0.076078855  0.000000000
     3.794420261  6.572128369  0.000000000     0.131772436  0.076078855  0.000000000
     0.000000000  0.000000000 23.649804000     0.000000000  0.000000000  0.042283649

  length of vectors
     7.588840254  7.588840254 23.649804000     0.152157704  0.152157704  0.042283649

 FORCES acting on ions
    electron-ion (+dipol)            ewald-force                    non-local-force                 convergence-correction
   0.524E-04 -.213E-02 0.367E-03   0.576E-10 -.464E-03 0.415E-03   0.867E-18 -.173E-17 0.108E-18   0.516E-12 -.319E-10 -.720E-09
   0.524E-04 0.213E-02 0.367E-03   0.576E-10 0.464E-03 0.415E-03   -.867E-18 0.173E-17 0.108E-18   0.510E-12 0.319E-10 -.720E-09
   0.134E+02 0.232E+02 0.272E+03   -.143E+02 -.248E+02 -.275E+03   0.880E+00 0.152E+01 0.230E+01   -.154E-06 -.267E-06 0.352E-05
   -.268E+02 -.116E-10 0.272E+03   0.286E+02 -.124E-13 -.275E+03   -.176E+01 0.278E-16 0.230E+01   0.308E-06 0.186E-14 0.352E-05
   0.268E+02 0.641E-11 -.272E+03   -.286E+02 0.572E-14 0.275E+03   0.176E+01 -.278E-16 -.230E+01   -.308E-06 0.680E-14 -.352E-05
   0.134E+02 -.232E+02 0.272E+03   -.143E+02 0.248E+02 -.275E+03   0.880E+00 -.152E+01 0.230E+01   -.154E-06 0.267E-06 0.352E-05
   -.134E+02 -.232E+02 -.272E+03   0.143E+02 0.248E+02 0.275E+03   -.880E+00 -.152E+01 -.230E+01   0.154E-06 0.267E-06 -.352E-05
   -.134E+02 0.232E+02 -.272E+03   0.143E+02 -.248E+02 0.275E+03   -.880E+00 0.152E+01 -.230E+01   0.154E-06 -.267E-06 -.352E-05
   0.411E-04 -.581E-11 0.553E-01   0.000E+00 0.355E-14 -.568E-13   0.444E-15 -.666E-15 0.000E+00   -.132E-11 0.987E-14 -.896E-08

 POSITION                                       TOTAL-FORCE (eV/Angst)
      3.79442     -2.19070      1.82491        -0.000000      0.000000      0.000000
      3.79442      2.19070      1.82491        -0.000000      0.000000      0.000000
      1.27619      2.21043     -0.00246         0.000110      0.000191     -0.000408
      5.03646      0.00000     -0.00246        -0.000220      0.000000     -0.000408
      2.55238      0.00000      3.65226         0.000220      0.000000      0.000408
      1.27619     -2.21043     -0.00246         0.000110     -0.000191     -0.000408
      2.51823      4.36170      3.65226        -0.000110     -0.000191      0.000408
      2.51823     -4.36170      3.65226        -0.000110      0.000191      0.000408
    total drift:                                0.000041     -0.000000      0.055333

  FREE ENERGIE OF THE ION-ELECTRON SYSTEM (eV)
  free  energy   TOTEN  =        -2.75646456 eV

  energy  without entropy=       -2.75646456  energy(sigma->0) =       -2.75646456

 d Force = 0.2016065E-05[-0.340E-06, 0.437E-05]  d Energy =-0.7860390E-04 0.806E-04
 d Force =-0.3707752E+00[-0.371E+00,-0.371E+00]  d Ewald  =-0.1903068E+01 0.153E+01

 reached required accuracy - stopping structural energy minimisation

 total charge

[...]

 magnetization (x)

# of ion     s       p       d       tot
  1        0.000   0.000   0.000   0.000
  2        0.000   0.000   0.000   0.000
  3        0.000   0.000  -0.000   0.000
  4        0.000   0.000   0.000   0.000
  5       -0.000  -0.000  -0.000  -0.000
  6        0.000   0.000   0.000   0.000
  7       -0.000  -0.000   0.000  -0.000
  8       -0.000   0.000   0.000   0.000
tot        0.000   0.000   0.000   0.000