 vasp.5.4.1 24Jun15 (build Dec 08 2016 12:24:04) complex

 executed on           IFC91_ompi date 2018.04.16  10:54:47

 INCAR:
 POTCAR:    PAW_PBE C 08Apr2002

 POTCAR:    PAW_PBE C 08Apr2002
   VRHFIN =C: s2p2

   TITEL  = PAW_PBE C 08Apr2002
   POMASS =   12.011; ZVAL   =    4.000    mass and valenz
   ENMAX  =  400.000; ENMIN  =  300.000 eV

  PAW_PBE C 08Apr2002                   :

 POSCAR: Surf-mp-48
  positions in direct lattice
 exchange correlation table for  LEXCH =       42
   RHO(1)=    0.500       N(1)  =     2000
   RHO(2)=  100.500       N(2)  =     4000

 ion  position               nearest neighbor table
   1  0.333  0.667  0.098-   2 1.42   2 1.42   2 1.42
   2  0.000  0.000  0.098-   1 1.42   1 1.42   1 1.42

  LATTYP: Found a hexagonal cell.
 ALAT       =     2.4672900000
 C/A-ratio  =     8.1060596849

  Lattice vectors:

 A1 = (   1.2336450000,  -2.1367370000,   0.0000000000)
 A2 = (   1.2336450000,   2.1367370000,   0.0000000000)
 A3 = (   0.0000000000,   0.0000000000,  20.0000000000)

Analysis of symmetry for initial positions (statically):
 Subroutine PRICEL returns:
 Original cell was already a primitive cell.

 Routine SETGRP: Setting up the symmetry group for a
 hexagonal supercell.

 Subroutine GETGRP returns: Found 24 space group operations
 (whereof  6 operations were pure point group operations)
 out of a pool of 24 trial point group operations.

The static configuration has the point symmetry C_3v.
 The point group associated with its full space group is D_6h.

Analysis of symmetry for dynamics (positions and initial velocities):
 Subroutine PRICEL returns:
 Original cell was already a primitive cell.

 Routine SETGRP: Setting up the symmetry group for a
 hexagonal supercell.

 Subroutine GETGRP returns: Found 24 space group operations
 (whereof  6 operations were pure point group operations)
 out of a pool of 24 trial point group operations.

The dynamic configuration has the point symmetry C_3v.
 The point group associated with its full space group is D_6h.

Analysis of magnetic symmetry:
 Subroutine PRICEL returns:
 Original cell was already a primitive cell.

 Subroutine MAGSYM returns: Found 24 space group operations
 (whereof  6 operations were pure point group operations)
 out of a pool of 24 trial space group operations
 (whereof  6 operations were pure point group operations)
 and found also     1 'primitive' translations

The magnetic configuration has the point symmetry C_3v.
 The point group associated with its full space group is D_6h.

 KPOINTS: Automatic kpoint scheme

Automatic generation of k-mesh.
Space group operators:
 irot       det(A)        alpha          n_x          n_y          n_z        tau_x        tau_y        tau_z
    1     1.000000     0.000000     1.000000     0.000000     0.000000     0.000000     0.000000     0.000000
    2     1.000000   120.000000     0.000000     0.000000    -1.000000     0.000000     0.000000     0.000000
    3     1.000000   120.000000     0.000000     0.000000     1.000000     0.000000     0.000000     0.000000
    4    -1.000000   180.000000     0.500000    -0.866025     0.000000     0.000000     0.000000     0.000000
    5    -1.000000   180.000000    -0.500000    -0.866025     0.000000     0.000000     0.000000     0.000000
    6    -1.000000   180.000000     1.000000     0.000000     0.000000     0.000000     0.000000     0.000000
    7    -1.000000     0.000000     1.000000     0.000000     0.000000     0.333334     0.666666     0.195076
    8     1.000000    60.000000     0.000000     0.000000    -1.000000     0.333332     0.666666     0.000000
    9    -1.000000    60.000000     0.000000     0.000000    -1.000000     0.000000     0.000000     0.195076
   10    -1.000000   120.000000     0.000000     0.000000    -1.000000     0.333334     0.666668     0.195076
   11     1.000000   180.000000     0.000000     0.000000     1.000000     0.333334     0.666666     0.000000
   12    -1.000000   180.000000     0.000000     0.000000     1.000000     0.000000     0.000000     0.195076
   13    -1.000000   120.000000     0.000000     0.000000     1.000000     0.333332     0.666666     0.195076
   14     1.000000    60.000000     0.000000     0.000000     1.000000     0.333334     0.666668     0.000000
   15    -1.000000    60.000000     0.000000     0.000000     1.000000     0.000000     0.000000     0.195076
   16     1.000000   180.000000     0.500000    -0.866025     0.000000     0.333332     0.666666     0.195076
   17     1.000000   179.999999     0.000000     1.000000     0.000000     0.000000     0.000000     0.195076
   18    -1.000000   179.999999     0.000000     1.000000     0.000000     0.333334     0.666666     0.000000
   19     1.000000   180.000000    -0.500000    -0.866025     0.000000     0.333334     0.666668     0.195076
   20     1.000000   180.000000     0.866026     0.500000     0.000000     0.000000     0.000000     0.195076
   21    -1.000000   180.000000     0.866026     0.500000     0.000000     0.333332     0.666666     0.000000
   22     1.000000   180.000000     1.000000     0.000000     0.000000     0.333334     0.666666     0.195076
   23     1.000000   180.000000     0.866026    -0.500000     0.000000     0.000000     0.000000     0.195076
   24    -1.000000   180.000000     0.866026    -0.500000     0.000000     0.333334     0.666668     0.000000

 Subroutine IBZKPT returns following result:

 Found     91 irreducible k-points:

 Following reciprocal coordinates:
            Coordinates               Weight
  0.000000  0.000000  0.000000      1.000000
  0.033333 -0.000000  0.000000      6.000000
  0.066667 -0.000000  0.000000      6.000000
  0.100000 -0.000000  0.000000      6.000000
  0.133333 -0.000000  0.000000      6.000000
  0.166667 -0.000000  0.000000      6.000000
  0.200000 -0.000000  0.000000      6.000000
  0.233333 -0.000000  0.000000      6.000000
  0.266667  0.000000  0.000000      6.000000
  0.300000 -0.000000  0.000000      6.000000
  0.333333 -0.000000  0.000000      6.000000
  0.366667 -0.000000  0.000000      6.000000
  0.400000 -0.000000  0.000000      6.000000
  0.433333 -0.000000  0.000000      6.000000
  0.466667 -0.000000  0.000000      6.000000
  0.500000 -0.000000  0.000000      3.000000
  0.033333  0.033333  0.000000      6.000000
  0.066667  0.033333  0.000000     12.000000
  0.100000  0.033333  0.000000     12.000000
  0.133333  0.033333  0.000000     12.000000
  0.166667  0.033333  0.000000     12.000000
  0.200000  0.033333  0.000000     12.000000
  0.233333  0.033333  0.000000     12.000000
  0.266667  0.033333  0.000000     12.000000
  0.300000  0.033333  0.000000     12.000000
  0.333333  0.033333  0.000000     12.000000
  0.366667  0.033333  0.000000     12.000000
  0.400000  0.033333  0.000000     12.000000
  0.433333  0.033333  0.000000     12.000000
  0.466667  0.033333  0.000000     12.000000
  0.066667  0.066667  0.000000      6.000000
  0.100000  0.066667  0.000000     12.000000
  0.133333  0.066667  0.000000     12.000000
  0.166667  0.066667  0.000000     12.000000
  0.200000  0.066667  0.000000     12.000000
  0.233333  0.066667  0.000000     12.000000
  0.266667  0.066667  0.000000     12.000000
  0.300000  0.066667  0.000000     12.000000
  0.333333  0.066667  0.000000     12.000000
  0.366667  0.066667  0.000000     12.000000
  0.400000  0.066667  0.000000     12.000000
  0.433333  0.066667  0.000000     12.000000
  0.466667  0.066667  0.000000      6.000000
  0.100000  0.100000  0.000000      6.000000
  0.133333  0.100000  0.000000     12.000000
  0.166667  0.100000  0.000000     12.000000
  0.200000  0.100000  0.000000     12.000000
  0.233333  0.100000  0.000000     12.000000
  0.266667  0.100000  0.000000     12.000000
  0.300000  0.100000  0.000000     12.000000
  0.333333  0.100000  0.000000     12.000000
  0.366667  0.100000  0.000000     12.000000
  0.400000  0.100000  0.000000     12.000000
  0.433333  0.100000  0.000000     12.000000
  0.133333  0.133333  0.000000      6.000000
  0.166667  0.133333  0.000000     12.000000
  0.200000  0.133333  0.000000     12.000000
  0.233333  0.133333  0.000000     12.000000
  0.266667  0.133333  0.000000     12.000000
  0.300000  0.133333  0.000000     12.000000
[...]
  0.333333  0.200000  0.000000     12.000000
  0.366667  0.200000  0.000000     12.000000
  0.400000  0.200000  0.000000      6.000000
  0.233333  0.233333  0.000000      6.000000
  0.266667  0.233333  0.000000     12.000000
  0.300000  0.233333  0.000000     12.000000
  0.333333  0.233333  0.000000     12.000000
  0.366667  0.233333  0.000000     12.000000
  0.266667  0.266667  0.000000      6.000000
  0.300000  0.266667  0.000000     12.000000
  0.333333  0.266667  0.000000     12.000000
  0.366667  0.266667  0.000000      6.000000
  0.300000  0.300000  0.000000      6.000000
  0.333333  0.300000  0.000000     12.000000
  0.333333  0.333333  0.000000      2.000000

 Following cartesian coordinates:
            Coordinates               Weight
  0.000000  0.000000  0.000000      1.000000
  0.013510 -0.007800  0.000000      6.000000
  0.027020 -0.015600  0.000000      6.000000
  0.040530 -0.023400  0.000000      6.000000
  0.054040 -0.031200  0.000000      6.000000
  0.067550 -0.039000  0.000000      6.000000
  0.081061 -0.046800  0.000000      6.000000
  0.094571 -0.054600  0.000000      6.000000
  0.108081 -0.062400  0.000000      6.000000
  0.121591 -0.070200  0.000000      6.000000
  0.135101 -0.078001  0.000000      6.000000
  0.148611 -0.085801  0.000000      6.000000
  0.162121 -0.093601  0.000000      6.000000
  0.175631 -0.101401  0.000000      6.000000
  0.189141 -0.109201  0.000000      6.000000
  0.202651 -0.117001  0.000000      3.000000
  0.027020  0.000000  0.000000      6.000000
  0.040530 -0.007800  0.000000     12.000000
  0.054040 -0.015600  0.000000     12.000000
  0.067550 -0.023400  0.000000     12.000000
  0.081061 -0.031200  0.000000     12.000000
  0.094571 -0.039000  0.000000     12.000000
  0.108081 -0.046800  0.000000     12.000000
  0.121591 -0.054600  0.000000     12.000000
  0.135101 -0.062400  0.000000     12.000000
  0.148611 -0.070200  0.000000     12.000000
  0.162121 -0.078001  0.000000     12.000000
  0.175631 -0.085801  0.000000     12.000000
  0.189141 -0.093601  0.000000     12.000000
  0.202651 -0.101401  0.000000     12.000000
  0.054040  0.000000  0.000000      6.000000
  0.067550 -0.007800  0.000000     12.000000
  0.081061 -0.015600  0.000000     12.000000
  0.094571 -0.023400  0.000000     12.000000
  0.108081 -0.031200  0.000000     12.000000
  0.121591 -0.039000  0.000000     12.000000
  0.135101 -0.046800  0.000000     12.000000
  0.148611 -0.054600  0.000000     12.000000
  0.162121 -0.062400  0.000000     12.000000
  0.175631 -0.070200  0.000000     12.000000
  0.189141 -0.078001  0.000000     12.000000
  0.202651 -0.085801  0.000000     12.000000
  0.216162 -0.093601  0.000000      6.000000
  0.081061  0.000000  0.000000      6.000000
  0.094571 -0.007800  0.000000     12.000000
  0.108081 -0.015600  0.000000     12.000000
  0.121591 -0.023400  0.000000     12.000000
  0.135101 -0.031200  0.000000     12.000000
  0.148611 -0.039000  0.000000     12.000000
[...]
 k-point 19 :   0.1000 0.0333 0.0000  plane waves:    4987
 k-point 20 :   0.1333 0.0333 0.0000  plane waves:    4981
 k-point 21 :   0.1667 0.0333 0.0000  plane waves:    4973
 k-point 22 :   0.2000 0.0333 0.0000  plane waves:    4943
 k-point 23 :   0.2333 0.0333 0.0000  plane waves:    4934
 k-point 24 :   0.2667 0.0333 0.0000  plane waves:    4925
 k-point 25 :   0.3000 0.0333 0.0000  plane waves:    4920
 k-point 26 :   0.3333 0.0333 0.0000  plane waves:    4914
 k-point 27 :   0.3667 0.0333 0.0000  plane waves:    4904
 k-point 28 :   0.4000 0.0333 0.0000  plane waves:    4892
 k-point 29 :   0.4333 0.0333 0.0000  plane waves:    4859
 k-point 30 :   0.4667 0.0333 0.0000  plane waves:    4854
 k-point 31 :   0.0667 0.0667 0.0000  plane waves:    4991
 k-point 32 :   0.1000 0.0667 0.0000  plane waves:    4977
 k-point 33 :   0.1333 0.0667 0.0000  plane waves:    4967
 k-point 34 :   0.1667 0.0667 0.0000  plane waves:    4952
 k-point 35 :   0.2000 0.0667 0.0000  plane waves:    4933
 k-point 36 :   0.2333 0.0667 0.0000  plane waves:    4931
 k-point 37 :   0.2667 0.0667 0.0000  plane waves:    4923
 k-point 38 :   0.3000 0.0667 0.0000  plane waves:    4909
 k-point 39 :   0.3333 0.0667 0.0000  plane waves:    4890
 k-point 40 :   0.3667 0.0667 0.0000  plane waves:    4904
 k-point 41 :   0.4000 0.0667 0.0000  plane waves:    4883
 k-point 42 :   0.4333 0.0667 0.0000  plane waves:    4853
 k-point 43 :   0.4667 0.0667 0.0000  plane waves:    4854
 k-point 44 :   0.1000 0.1000 0.0000  plane waves:    4961
 k-point 45 :   0.1333 0.1000 0.0000  plane waves:    4936
 k-point 46 :   0.1667 0.1000 0.0000  plane waves:    4934
 k-point 47 :   0.2000 0.1000 0.0000  plane waves:    4933
 k-point 48 :   0.2333 0.1000 0.0000  plane waves:    4933
 k-point 49 :   0.2667 0.1000 0.0000  plane waves:    4922
 k-point 50 :   0.3000 0.1000 0.0000  plane waves:    4907
 k-point 51 :   0.3333 0.1000 0.0000  plane waves:    4900
 k-point 52 :   0.3667 0.1000 0.0000  plane waves:    4883
 k-point 53 :   0.4000 0.1000 0.0000  plane waves:    4873
 k-point 54 :   0.4333 0.1000 0.0000  plane waves:    4868
 k-point 55 :   0.1333 0.1333 0.0000  plane waves:    4935
 k-point 56 :   0.1667 0.1333 0.0000  plane waves:    4922
 k-point 57 :   0.2000 0.1333 0.0000  plane waves:    4927
 k-point 58 :   0.2333 0.1333 0.0000  plane waves:    4929
 k-point 59 :   0.2667 0.1333 0.0000  plane waves:    4919
 k-point 60 :   0.3000 0.1333 0.0000  plane waves:    4919
[...]
 k-point 77 :   0.3333 0.2000 0.0000  plane waves:    4898
 k-point 78 :   0.3667 0.2000 0.0000  plane waves:    4883
 k-point 79 :   0.4000 0.2000 0.0000  plane waves:    4902
 k-point 80 :   0.2333 0.2333 0.0000  plane waves:    4909
 k-point 81 :   0.2667 0.2333 0.0000  plane waves:    4906
 k-point 82 :   0.3000 0.2333 0.0000  plane waves:    4910
 k-point 83 :   0.3333 0.2333 0.0000  plane waves:    4914
 k-point 84 :   0.3667 0.2333 0.0000  plane waves:    4904
 k-point 85 :   0.2667 0.2667 0.0000  plane waves:    4918
 k-point 86 :   0.3000 0.2667 0.0000  plane waves:    4902
 k-point 87 :   0.3333 0.2667 0.0000  plane waves:    4906
 k-point 88 :   0.3667 0.2667 0.0000  plane waves:    4914
 k-point 89 :   0.3000 0.3000 0.0000  plane waves:    4904
 k-point 90 :   0.3333 0.3000 0.0000  plane waves:    4936
 k-point 91 :   0.3333 0.3333 0.0000  plane waves:    4938

 maximum and minimum number of plane-waves per node :      1272     1192

 maximum number of plane-waves:      5021
 maximum index in each direction:
   IXMAX=    5   IYMAX=    5   IZMAX=   44
   IXMIN=   -6   IYMIN=   -5   IZMIN=  -44

 NGX is ok and might be reduce to  24
 NGY is ok and might be reduce to  22
 NGZ is ok and might be reduce to 178

 parallel 3D FFT for wavefunctions:
    minimum data exchange during FFTs selected (reduces bandwidth)
 parallel 3D FFT for charge:
    minimum data exchange during FFTs selected (reduces bandwidth)

 Broyden mixing: mesh for mixing (old mesh)
   NGX = 11   NGY = 11   NGZ = 89
  (NGX  = 48   NGY  = 48   NGZ  =360)
  gives a total of  10769 points

 initial charge density was supplied:
 charge density of overlapping atoms calculated
 number of electron       8.0000000 magnetization       2.0000000
 keeping initial charge density in first step

 Maximum index for augmentation-charges          539 (set IRDMAX)

 First call to EWALD:  gamma=   0.375
 Maximum number of real-space cells 5x 5x 1
 Maximum number of reciprocal cells 2x 2x10

 FEWALD executed in parallel

----------------------------------------- Iteration    1(   1)  ---------------------------------------

vdW kernel read from vdw_kernel.bindat
  0.0000  0.2424  0.5071  0.7962  1.1119  1.4567  1.8333  2.2446  2.6937  3.1842
  3.7199  4.3049  4.9438  5.6415  6.4036  7.2358  8.1446  9.1372 10.2212 11.4050
 12.6979 14.1099 15.6519 17.3360 19.1751 21.1837 23.3773 25.7729 28.3892 31.2465
 34.3669 37.7748 41.4965 45.5611 50.0000

 eigenvalue-minimisations  :  5824
 total energy-change (2. order) : 0.5717748E+02  (-0.3565277E+03)
 number of electron       8.0000000 magnetization       2.0000000
 augmentation part        8.0000000 magnetization       2.0000000

 Free energy of the ion-electron system (eV)
  alpha Z        PSCENC =         3.11636941
  Ewald energy   TEWEN  =      1293.13553554
  -Hartree energ DENC   =     -1505.84157649
  -exchange      EXHF   =         0.00000000
  -V(xc)+E(xc)   XCENC  =        26.61114394
  PAW double counting   =       234.13396038     -235.95409777
  entropy T*S    EENTRO =        -0.02066847
  eigenvalues    EBANDS =       -55.65594444
  atomic energy  EATOM  =       297.65276153
  Solvation  Ediel_sol  =         0.00000000
  free energy    TOTEN  =        57.17748364 eV

  energy without entropy =       57.19815212  energy(sigma->0) =       57.18781788

[...]

 eigenvalue-minimisations  :  8272
 total energy-change (2. order) :-0.6868707E+02  (-0.5856913E+02)
 number of electron       8.0000000 magnetization       2.0000000
 augmentation part        8.0000000 magnetization       2.0000000

[...]

 Broyden mixing:
  rms(total) = 0.10056E+01    rms(broyden)= 0.10056E+01
  rms(prec ) = 0.10342E+01
  weight for this iteration     100.00

[...]

 eigenvalues of (default mixing * dielectric matrix)
  average eigenvalue GAMMA=   1.0338
  1.0338

[...]

 average (electrostatic) potential at core
  the test charge radii are     0.6991
  (the norm of the test charge is              1.0000)
       1 -58.5659       2 -58.5659

 E-fermi :  -2.9263     XC(G=0):  -3.1295     alpha+bet : -1.9011

 spin component 1

 k-point     1 :       0.0000    0.0000    0.0000
  band No.  band energies     occupation
      1     -22.1659      1.00000
      2     -10.5413      1.00000
      3      -6.1531      1.00000
      4      -6.1530      1.00000
      5      -0.9348      0.00000
      6       0.0540      0.00000
      7       0.6803      0.00000
      8       1.4983      0.00000
      9       1.8311      0.00000
     10       3.6215      0.00000
     11       4.2754      0.00000
     12       5.4143      0.00000
     13       5.4144      0.00000
     14       6.6809      0.00000
     15       7.2782      0.00000
     16       8.4976      0.00000

[...]

 soft charge-density along one line, spin component           1
         0         1         2         3         4         5         6         7         8         9
 total charge-density along one line

[...]

------------------------ aborting loop because EDIFF is reached ----------------------------------------

 total charge

# of ion     s       p       d       tot
  1        0.873   1.801   0.000   2.674
  2        0.873   1.801   0.000   2.674
tot        1.747   3.602   0.000   5.348

 magnetization (x)

[...]

  FORCE on cell =-STRESS in cart. coord.  units (eV):
  Direction    XX          YY          ZZ          XY          YZ          ZX
  Alpha Z     3.11637     3.11637     3.11637
  Ewald    1561.86827  1561.86695 -1830.59971    -0.00000    -0.00000     0.00000
  Hartree  1528.01544  1528.01543 -1516.58693     0.00000     0.00000    -0.00000
  E(xc)     -30.18541   -30.18541   -31.22705    -0.00000     0.00000     0.00000
  Local   -3176.02847 -3176.02789  3244.77021     0.00000    -0.00000    -0.00000
  n-local    -7.19508    -6.23165    -5.90561     0.00029    -0.00000    -0.00000
  augment    -0.88134    -0.88133    -0.76416     0.00000    -0.00000     0.00000
  Kinetic   124.37700   116.83942   137.15666     0.07447     0.00000     0.00000
  Fock        0.00000     0.00000     0.00000     0.00000     0.00000     0.00000
  Total      -0.20066    -0.20066    -0.04023     0.00000    -0.00000     0.00000
  in kB      -3.04916    -3.04916    -0.61123     0.00000    -0.00000     0.00000

 VOLUME and BASIS-vectors are now :
  energy-cutoff  :      750.00
  volume of cell :      105.44
      direct lattice vectors                 reciprocal lattice vectors
     1.233645000 -2.136737000  0.000000000     0.405302984 -0.234001658  0.000000000
     1.233645000  2.136737000  0.000000000     0.405302984  0.234001658  0.000000000
     0.000000000  0.000000000 20.000000000     0.000000000  0.000000000  0.050000000

[...]

 FORCES acting on ions
    electron-ion (+dipol)            ewald-force                    non-local-force                 convergence-correction
   0.522E-08 0.205E-03 0.144E-04   0.728E-15 0.627E-03 0.529E-22   -.278E-16 0.000E+00 -.237E-19   -.157E-14 0.161E-11 -.796E-11
   0.523E-08 -.205E-03 0.144E-04   0.860E-14 -.627E-03 -.529E-22   -.416E-16 0.278E-16 0.000E+00   0.971E-15 -.161E-11 -.796E-11
   0.104E-07 0.172E-10 0.289E-04   0.933E-14 -.346E-14 0.000E+00   -.694E-16 0.278E-16 -.237E-19   -.596E-15 0.291E-14 -.159E-10

 POSITION                                       TOTAL-FORCE (eV/Angst)
      1.23365      0.71224      1.95076         0.000000      0.000000      0.000000
      0.00000      0.00000      1.95076        -0.000000     -0.000000      0.000000
    total drift:                                0.000000      0.000000      0.000029

  FREE ENERGIE OF THE ION-ELECTRON SYSTEM (eV)
  free  energy   TOTEN  =       -15.91259831 eV

  energy  without entropy=      -15.91209441  energy(sigma->0) =      -15.91234636

[...]

 d Force = 0.0000000E+00[ 0.000E+00, 0.000E+00]  d Energy =-0.1139358E-02 0.114E-02
 d Force = 0.0000000E+00[ 0.000E+00, 0.000E+00]  d Ewald  =-0.1523664E+02 0.152E+02

 Steepest descent step on ions:
 trial-energy change:    0.001139  1 .order    0.001312   -0.001943    0.004566
  (g-gl).g = 0.194E-02      g.g   = 0.194E-02  gl.gl    = 0.000E+00
 g(Force)  = 0.359E-39   g(Stress)= 0.194E-02 ortho     = 0.000E+00
 gamma     =   0.00000
 trial     =   1.00000
 opt step  =   0.33381  (harmonic =   0.29845) maximal distance =0.00000000
 next E    =   -15.912929   (d E  =  -0.00033)

[...]

 d Force = 0.0000000E+00[ 0.000E+00, 0.000E+00]  d Energy = 0.1473399E-02-0.147E-02
 d Force = 0.0000000E+00[ 0.000E+00, 0.000E+00]  d Ewald  = 0.1017650E+02-0.102E+02

 FEWALD executed in parallel

[...]

 eigenvalue-minimisations  :  6616
 total energy-change (2. order) : 0.3857723E-05  (-0.4645155E-08)
 number of electron       7.9999999 magnetization       0.0000000
 augmentation part        0.2008030 magnetization       0.0000000

[...]

 Broyden mixing:
  rms(total) = 0.22688E-05    rms(broyden)= 0.22688E-05
  rms(prec ) = 0.23784E-05
  weight for this iteration     100.00

 eigenvalues of (default mixing * dielectric matrix)
  average eigenvalue GAMMA=   2.0338
  6.4205  3.2869  2.4760  1.5337  1.5337  1.0157  0.6232  0.7075  0.7075

[...]

----------------------------------------- Iteration    4(  11)  ---------------------------------------

 eigenvalue-minimisations  :  6816
 total energy-change (2. order) :-0.8370012E-07  (-0.6238722E-09)
 number of electron       7.9999999 magnetization      -0.0000000
 augmentation part        0.2008033 magnetization       0.0000000

 Free energy of the ion-electron system (eV)
  alpha Z        PSCENC =         3.12547681
  Ewald energy   TEWEN  =      1297.70056888
  -Hartree energ DENC   =     -1544.02653826
  -exchange      EXHF   =         0.00000000
  -V(xc)+E(xc)   XCENC  =        27.46887874
  PAW double counting   =      1105.67748976    -1107.24969994
  entropy T*S    EENTRO =        -0.00050378
  eigenvalues    EBANDS =       -96.26136499
  atomic energy  EATOM  =       297.65276153
  Solvation  Ediel_sol  =         0.00000000
  free energy    TOTEN  =       -15.91293126 eV

  energy without entropy =      -15.91242748  energy(sigma->0) =      -15.91267937

 average (electrostatic) potential at core
  the test charge radii are     0.6991
  (the norm of the test charge is              1.0000)
       1 -58.5447       2 -58.5447

 E-fermi :  -2.9113     XC(G=0):  -3.1063     alpha+bet : -1.9066

[...]

 spin component 2

[...]

 k-point    91 :       0.3333    0.3333    0.0000
  band No.  band energies     occupation
      1     -15.3655      1.00000
      2     -15.3654      1.00000
      3     -13.5319      1.00000
      4      -2.9113      0.50002
      5      -2.9112      0.49985
      6       7.6534      0.00000
      7       9.7870      0.00000
      8       9.7886      0.00000
      9      10.2289      0.00000
     10      10.3871      0.00000
     11      10.3944      0.00000
     12      11.2449      0.00000
     13      11.4661      0.00000
     14      11.4727      0.00000
     15      11.9416      0.00000
     16      12.1978      0.00000

[...]

 soft charge-density along one line, spin component           2
         0         1         2         3         4         5         6         7         8         9
 total charge-density along one line

------------------------ aborting loop because EDIFF is reached ----------------------------------------

[...]

  FORCE on cell =-STRESS in cart. coord.  units (eV):
  Direction    XX          YY          ZZ          XY          YZ          ZX
  Alpha Z     3.12548     3.12548     3.12548
  Ewald    1566.82570  1566.82437 -1835.94955     0.00000    -0.00000     0.00000
  Hartree  1532.62932  1532.62931 -1521.23219     0.00000     0.00000    -0.00000
  E(xc)     -30.21187   -30.21187   -31.25507    -0.00000     0.00000     0.00000
  Local   -3185.54684 -3185.54626  3254.69148     0.00000    -0.00000    -0.00000
  n-local    -7.24464    -6.25798    -5.92559     0.00946    -0.00000    -0.00000
  augment    -0.88632    -0.88631    -0.76707    -0.00000    -0.00000    -0.00000
  Kinetic   124.61459   117.01767   137.27240     0.05666     0.00000     0.00000
  Fock        0.00000     0.00000     0.00000     0.00000     0.00000     0.00000
  Total      -0.00009    -0.00009    -0.04012    -0.00000     0.00000     0.00000
  in kB      -0.00138    -0.00138    -0.61145    -0.00000     0.00000     0.00000

 VOLUME and BASIS-vectors are now :
  energy-cutoff  :      750.00
  volume of cell :      105.13
      direct lattice vectors                 reciprocal lattice vectors
     1.231846317 -2.133621585  0.000000000     0.405894788 -0.234343336  0.000000000
     1.231846317  2.133621585  0.000000000     0.405894788  0.234343336  0.000000000
     0.000000000  0.000000000 20.000000000     0.000000000  0.000000000  0.050000000

  length of vectors
     2.463693653  2.463693653 20.000000000     0.468686866  0.468686866  0.050000000

 FORCES acting on ions
    electron-ion (+dipol)            ewald-force                    non-local-force                 convergence-correction
   0.643E-08 0.206E-03 0.150E-04   0.180E-14 0.629E-03 0.529E-22   0.000E+00 0.416E-16 -.102E-19   -.202E-14 0.684E-11 0.943E-10
   0.643E-08 -.206E-03 0.150E-04   -.165E-14 -.629E-03 -.529E-22   0.555E-16 -.139E-16 -.102E-19   -.590E-16 -.685E-11 0.943E-10
   0.129E-07 0.383E-09 0.301E-04   0.160E-15 0.296E-14 0.000E+00   0.555E-16 0.278E-16 -.203E-19   -.208E-14 -.469E-14 0.189E-09

 POSITION                                       TOTAL-FORCE (eV/Angst)
      1.23185      0.71120      1.95076        -0.000000      0.000000     -0.000000
     -0.00000     -0.00000      1.95076         0.000000     -0.000000      0.000000
    total drift:                                0.000000      0.000000      0.000030

  FREE ENERGIE OF THE ION-ELECTRON SYSTEM (eV)
  free  energy   TOTEN  =       -15.91293126 eV

  energy  without entropy=      -15.91242748  energy(sigma->0) =      -15.91267937

 d Force = 0.0000000E+00[ 0.000E+00, 0.000E+00]  d Energy =-0.1095800E-05 0.110E-05
 d Force = 0.0000000E+00[ 0.000E+00, 0.000E+00]  d Ewald  = 0.4951138E+00-0.495E+00

 reached required accuracy - stopping structural energy minimisation

 total charge

[...]

 magnetization (x)

# of ion     s       p       d       tot
  1       -0.000   0.000   0.000   0.000
  2       -0.000   0.000   0.000   0.000
tot       -0.000   0.000   0.000   0.000