 vasp.5.4.1 24Jun15 (build Feb  5 2017 10:03:11) complex
 executed on           IFC91_ompi date 2018.12.17  02:48:16

 INCAR:
 POTCAR:    PAW_PBE Y_sv 25May2007
 POTCAR:    PAW_PBE Br 06Sep2000

 POTCAR:    PAW_PBE Y_sv 25May2007
   VRHFIN =Y: 4s4p5s4d

   TITEL  = PAW_PBE Y_sv 25May2007
   POMASS =   88.906; ZVAL   =   11.000    mass and valenz
   ENMAX  =  202.626; ENMIN  =  151.970 eV

 POTCAR:    PAW_PBE Br 06Sep2000
   VRHFIN =Br: s2p5

   TITEL  = PAW_PBE Br 06Sep2000
   POMASS =   79.904; ZVAL   =    7.000    mass and valenz
   ENMAX  =  216.285; ENMIN  =  162.214 eV

 WARNING: PSMAXN for non-local potential too small
          PSMAXN should be >   13.554559223799082       NTYP=           1

  PAW_PBE Y_sv 25May2007                :
  PAW_PBE Br 06Sep2000                  :

 POSCAR: Surf-mp-754815
  positions in direct lattice
  velocities in cartesian coordinates
 exchange correlation table for  LEXCH =       42
   RHO(1)=    0.500       N(1)  =     2000
   RHO(2)=  100.500       N(2)  =     4000

 ion  position               nearest neighbor table
   1  0.033  0.624  0.187-  15 2.80   5 2.80  14 2.80   7 2.80   9 2.80  13 2.80   2 4.09   4 4.09
                             4 4.09
   2  0.033  0.958  0.187-  16 2.80   6 2.80  14 2.80   7 2.80   8 2.80  12 2.80   1 4.09   3 4.09
                             3 4.09
   3  0.533  0.124  0.187-   8 2.80  12 2.80  11 2.80  10 2.80  16 2.80   6 2.80   4 4.09   2 4.09
                             2 4.09
   4  0.533  0.458  0.187-   9 2.80  13 2.80  11 2.80  10 2.80  15 2.80   5 2.80   3 4.09   1 4.09
                             1 4.09
   5  0.288  0.466  0.251-   1 2.80   4 2.80
   6  0.288  0.116  0.251-   2 2.80   3 2.80
   7  0.260  0.791  0.251-   2 2.80   1 2.80
   8  0.788  0.966  0.251-   3 2.80   2 2.80
   9  0.788  0.616  0.251-   4 2.80   1 2.80
  10  0.760  0.291  0.251-   4 2.80   3 2.80
  11  0.306  0.291  0.123-   4 2.80   3 2.80
  12  0.278  0.966  0.123-   3 2.80   2 2.80
  13  0.278  0.616  0.123-   4 2.80   1 2.80
  14  0.806  0.791  0.123-   2 2.80   1 2.80
  15  0.778  0.466  0.123-   1 2.80   4 2.80
  16  0.778  0.116  0.123-   2 2.80   3 2.80

  LATTYP: Found a simple monoclinic cell.
 ALAT       =    25.5604351874
 B/A-ratio  =     0.4796959431
 C/A-ratio  =     1.9610744255
 COS(beta)  =    -0.9903691996

  Lattice vectors:

 A1 = (  -5.3231425839,   0.0000000000, -25.0000000000)
 A2 = (   0.0000000000, -12.2612370628,   0.0000000000)
 A3 = (   3.5506942880,   0.0000000000,  50.0000000000)

Analysis of symmetry for initial positions (statically):
 Subroutine PRICEL returns following result:

  LATTYP: Found a base centered monoclinic cell.
 ALAT       =     7.0955766886
 B/A-ratio  =     1.7280113514
 C/A-ratio  =     3.9340821950
 COS(beta)  =    -0.2228305729

[...]

   2 primitive cells build up your supercell.

 Routine SETGRP: Setting up the symmetry group for a
 simple monoclinic supercell.

 Subroutine GETGRP returns: Found  4 space group operations
 (whereof  1 operations were pure point group operations)
 out of a pool of  4 trial point group operations.

The static configuration has the point symmetry C_1 .
 The point group associated with its full space group is C_2h.

Analysis of symmetry for dynamics (positions and initial velocities):
 Subroutine PRICEL returns following result:

[...]

 Routine SETGRP: Setting up the symmetry group for a
 simple monoclinic supercell.

 Subroutine GETGRP returns: Found  4 space group operations
 (whereof  1 operations were pure point group operations)
 out of a pool of  4 trial point group operations.

The dynamic configuration has the point symmetry C_1 .
 The point group associated with its full space group is C_2h.

Analysis of magnetic symmetry:
 Subroutine PRICEL returns following result:

  LATTYP: Found a base centered monoclinic cell.
 ALAT       =     7.0955766886
 B/A-ratio  =     1.7280113514
 C/A-ratio  =     3.9340821950
 COS(beta)  =    -0.2228305729

  Lattice vectors:

 A1 = (   3.5477883443,   6.1306185314,   0.0000000000)
 A2 = (   3.5477883443,  -6.1306185314,   0.0000000000)
 A3 = ( -12.4186908901,  -0.0000000000, -25.0000000000)

   2 primitive cells build up your supercell.

 Subroutine MAGSYM returns: Found  4 space group operations
 (whereof  1 operations were pure point group operations)
 out of a pool of  4 trial space group operations
 (whereof  1 operations were pure point group operations)
 and found also     2 'primitive' translations

The magnetic configuration has the point symmetry C_1 .
 The point group associated with its full space group is C_2h.

 KPOINTS: Automatic kpoint scheme

Automatic generation of k-mesh.
Space group operators:
 irot       det(A)        alpha          n_x          n_y          n_z        tau_x        tau_y        tau_z
    1     1.000000     0.000000     1.000000     0.000000     0.000000    -0.000000    -0.000000    -0.000000
    2    -1.000000     0.000000     1.000000     0.000000     0.000000    -1.433305     0.081506    -0.625766
    3     1.000000   180.000000     0.000000     1.000000     0.000000    -0.933302    -0.000000    -0.625766
    4    -1.000000   180.000000     0.000000     1.000000     0.000000     0.499999     0.081506    -0.000000

 Subroutine IBZKPT returns following result:

 Found      6 irreducible k-points:

 Following reciprocal coordinates:
            Coordinates               Weight
  0.000000  0.000000  0.000000      1.000000
  0.250000  0.000000  0.000000      2.000000
  0.500000  0.000000  0.000000      1.000000
  0.000000  0.500000  0.000000      1.000000
  0.250000  0.500000  0.000000      2.000000
  0.500000  0.500000  0.000000      1.000000

 Following cartesian coordinates:
            Coordinates               Weight
  0.000000  0.000000  0.000000      1.000000
  0.035233  0.000000  0.012498      2.000000
  0.070466  0.000000  0.024996      1.000000
  0.000000  0.040779  0.000000      1.000000
  0.035233  0.040779  0.012498      2.000000
  0.070466  0.040779  0.024996      1.000000

 I would recommend the setting:
   dimension x,y,z NGX =    61 NGY =  106 NGZ =  229
 SYSTEM =  unknown system
 POSCAR =  Surf-mp-754815

 Startparameter for this run:
   NWRITE =      2    write-flag & timer
   PREC   = accura    normal or accurate (medium, high low for compatibility)
   ISTART =      0    job   : 0-new  1-cont  2-samecut
   ICHARG =      2    charge: 1-file 2-atom 10-const
   ISPIN  =      2    spin polarized calculation?
   LNONCOLLINEAR =      F non collinear calculations
   LSORBIT =      F    spin-orbit coupling
   INIWAV =      1    electr: 0-lowe 1-rand  2-diag
   LASPH  =      F    aspherical Exc in radial PAW
   METAGGA=      F    non-selfconsistent MetaGGA calc.

 Electronic Relaxation 1
   ENCUT  =  700.0 eV  51.45 Ry    7.17 a.u.  15.31 26.45 57.22*2*pi/ulx,y,z
   ENINI  =  700.0     initial cutoff
   ENAUG  =  503.9 eV  augmentation charge cutoff
   NELM   =    500;   NELMIN=  2; NELMDL=  0     # of ELM steps
   EDIFF  = 0.1E-06   stopping-criterion for ELM
   LREAL  =      F    real-space projection
   NLSPLINE    = F    spline interpolate recip. space projectors
   LCOMPAT=      F    compatible to vasp.4.4
   GGA_COMPAT  = T    GGA compatible to vasp.4.4-vasp.4.6
   LMAXPAW     = -100 max onsite density
   LMAXMIX     =    2 max onsite mixed and CHGCAR
   VOSKOWN=      0    Vosko Wilk Nusair interpolation
   ROPT   =    0.00000   0.00000
 Ionic relaxation
   EDIFFG = -.1E-02   stopping-criterion for IOM
   NSW    =    500    number of steps for IOM
   NBLOCK =      1;   KBLOCK =    500    inner block; outer block
   IBRION =      2    ionic relax: 0-MD 1-quasi-New 2-CG
   NFREE  =      1    steps in history (QN), initial steepest desc. (CG)
   ISIF   =      3    stress and relaxation
   IWAVPR =     11    prediction:  0-non 1-charg 2-wave 3-comb
   ISYM   =      2    0-nonsym 1-usesym 2-fastsym
   LCORR  =      T    Harris-Foulkes like correction to forces

   POTIM  = 0.5000    time-step for ionic-motion
   TEIN   =    0.0    initial temperature
   TEBEG  =    0.0;   TEEND  =   0.0 temperature during run
   SMASS  =  -3.00    Nose mass-parameter (am)
   estimated Nose-frequenzy (Omega)   =  0.10E-29 period in steps =****** mass=  -0.115E-26a.u.
   SCALEE = 1.0000    scale energy and forces
   NPACO  =    256;   APACO  = 16.0  distance and # of slots for P.C.
   PSTRESS=    0.0 pullay stress

  Mass of Ions in am
   POMASS =  88.91 79.90
  Ionic Valenz
   ZVAL   =  11.00  7.00
  Atomic Wigner-Seitz radii
  virtual crystal weights
   VCA    =   1.00  1.00
   NELECT =     128.0000    total number of electrons
   NUPDOWN=      -1.0000    fix difference up-down

 DOS related values:
   EMIN   =  10.00;   EMAX   =-10.00  energy-range for DOS
   EFERMI =   0.00
   ISMEAR =     0;   SIGMA  =   0.20  broadening in eV -4-tet -1-fermi 0-gaus

 Electronic relaxation 2 (details)
   IALGO  =     38    algorithm
   LDIAG  =      T    sub-space diagonalisation (order eigenvalues)
   LSUBROT=      F    optimize rotation matrix (better conditioning)
   TURBO    =      0    0=normal 1=particle mesh
   IRESTART =      0    0=no restart 2=restart with 2 vectors
   NREBOOT  =      0    no. of reboots
   NMIN     =      0    reboot dimension
   EREF     =   0.00    reference energy to select bands
   IMIX   =      4    mixing-type and parameters
     AMIX     =   0.40;   BMIX     =  1.00
     AMIX_MAG =   1.60;   BMIX_MAG =  1.00
     AMIN     =   0.10
     WC   =   100.;   INIMIX=   1;  MIXPRE=   1;  MAXMIX= -45

 Intra band minimization:
   WEIMIN = 0.0010     energy-eigenvalue tresh-hold
   EBREAK =  0.28E-09  absolut break condition
   DEPER  =   0.30     relativ break condition

   TIME   =   0.40     timestep for ELM

  volume/ion in A,a.u.               =     135.94       917.36
  Fermi-wavevector in a.u.,A,eV,Ry     =   0.636782  1.203343  5.517038  0.405491
  Thomas-Fermi vector in A             =   1.701567

 Write flags
   LWAVE  =      T    write WAVECAR
   LCHARG =      T    write CHGCAR
   LVTOT  =      F    write LOCPOT, total local potential
   LVHAR  =      T    write LOCPOT, Hartree potential only
   LELF   =      F    write electronic localiz. function (ELF)
   LORBIT =     11    0 simple, 1 ext, 2 COOP (PROOUT)

 Dipole corrections
   LMONO  =      F    monopole corrections only (constant potential shift)
   LDIPOL =      F    correct potential (dipole corrections)
   IDIPOL =      0    1-x, 2-y, 3-z, 4-all directions
   EPSILON=  1.0000000 bulk dielectric constant

 Exchange correlation treatment:
   GGA     =    BO    GGA type
   VOSKOWN=      0    Vosko Wilk Nusair interpolation
   LHFCALC =     F    Hartree Fock is set to
   LHFONE  =     F    Hartree Fock one center treatment
   AEXX    =    0.0000 exact exchange contribution

 vdW DFT:
   LUSE_VDW   =     T    switch on vdW DFT
   Zab_VDW    =-.8491    correlation parameter
   PARAM1     =0.1833
   PARAM2     =0.2200
   PARAM3     =0.0000

 Linear response parameters
   LEPSILON=     F    determine dielectric tensor
   LRPA    =     F    only Hartree local field effects (RPA)
   LNABLA  =     F    use nabla operator in PAW spheres
   LVEL    =     F    velocity operator in full k-point grid
[...]
 gamma     =   0.00000
 trial     =   1.00000
 opt step  =   2.60564  (harmonic =   2.60564) maximal distance =0.00102237
 next E    =   -44.332095   (d E  =  -0.00006)

[...]

 d Force = 0.1106997E-04[ 0.109E-04, 0.113E-04]  d Energy =-0.1000268E-05 0.121E-04
 d Force =-0.5777890E+00[-0.578E+00,-0.578E+00]  d Ewald  = 0.2099018E+01-0.268E+01

 Conjugate gradient step on ions:
 trial-energy change:    0.000001  1 .order   -0.000022   -0.000023   -0.000022
  (g-gl).g = 0.701E-04      g.g   = 0.707E-04  gl.gl    = 0.447E-04
 g(Force)  = 0.173E-04   g(Stress)= 0.533E-04 ortho     = 0.525E-06
 gamma     =   1.56858
 trial     =   0.32400
 opt step  =   1.29598  (harmonic =   5.42691) maximal distance =0.00101116
 next E    =   -44.331793   (d E  =  -0.00019)

[...]

 d Force =-0.1598379E-04[-0.215E-04,-0.105E-04]  d Energy = 0.1196476E-03-0.136E-03
 d Force = 0.2958228E+01[ 0.296E+01, 0.296E+01]  d Ewald  =-0.1074492E+02 0.137E+02

[...]

 d Force = 0.5389906E-04[ 0.377E-04, 0.701E-04]  d Energy =-0.2631805E-04 0.802E-04
 d Force =-0.5772352E+00[-0.577E+00,-0.578E+00]  d Ewald  = 0.1481162E+01-0.206E+01

 Conjugate gradient step on ions:
 trial-energy change:    0.000026  1 .order   -0.000051   -0.000067   -0.000036
  (g-gl).g = 0.496E-04      g.g   = 0.495E-04  gl.gl    = 0.707E-04
 g(Force)  = 0.428E-04   g(Stress)= 0.666E-05 ortho     =-0.453E-07
 gamma     =   0.70188
 trial     =   1.35194
 opt step  =   2.93755  (harmonic =   2.93755) maximal distance =0.00200729
 next E    =   -44.331516   (d E  =  -0.00007)

[...]

 d Force = 0.2189801E-04[-0.411E-06, 0.442E-04]  d Energy =-0.7451559E-04 0.964E-04
 d Force =-0.6761509E+00[-0.676E+00,-0.677E+00]  d Ewald  = 0.1737637E+01-0.241E+01

[...]

 d Force = 0.4286357E-04[ 0.395E-04, 0.463E-04]  d Energy = 0.9771328E-04-0.548E-04
 d Force = 0.1663453E+01[ 0.166E+01, 0.166E+01]  d Ewald  =-0.7464726E-01 0.174E+01

[...]

 d Force = 0.7948456E-04[ 0.568E-04, 0.102E-03]  d Energy = 0.1725544E-03-0.931E-04
 d Force = 0.4312264E+01[ 0.432E+01, 0.431E+01]  d Ewald  =-0.1967894E+00 0.451E+01

[...]

 d Force = 0.4254023E-04[ 0.255E-04, 0.596E-04]  d Energy = 0.2224997E-03-0.180E-03
 d Force = 0.3074136E+01[ 0.308E+01, 0.307E+01]  d Ewald  = 0.1630442E+01 0.144E+01

[...]

 d Force = 0.3244316E-05[ 0.255E-05, 0.393E-05]  d Energy = 0.6032729E-04-0.571E-04
 d Force = 0.6623415E+00[ 0.662E+00, 0.662E+00]  d Ewald  = 0.3514278E+00 0.311E+00

[...]

 d Force = 0.1961128E-05[-0.119E-05, 0.511E-05]  d Energy = 0.8147043E-04-0.795E-04
 d Force = 0.1324930E+01[ 0.133E+01, 0.132E+01]  d Ewald  = 0.7030991E+00 0.622E+00

[...]

 d Force =-0.5196579E-06[-0.890E-06,-0.150E-06]  d Energy = 0.7406341E-04-0.746E-04
 d Force = 0.1656415E+00[ 0.166E+00, 0.166E+00]  d Ewald  = 0.3295758E+01-0.313E+01

[...]

 d Force = 0.2514080E-05[ 0.223E-05, 0.279E-05]  d Energy = 0.6285640E-05-0.377E-05
 d Force =-0.2090412E+00[-0.209E+00,-0.209E+00]  d Ewald  =-0.1681509E+00-0.409E-01

[...]

 d Force = 0.4250191E-05[ 0.180E-05, 0.670E-05]  d Energy = 0.1539432E-04-0.111E-04
 d Force =-0.6270521E+00[-0.627E+00,-0.627E+00]  d Ewald  =-0.5043799E+00-0.123E+00

[...]

 Conjugate gradient step on ions:
 trial-energy change:    0.000007  1 .order   -0.000002   -0.000002   -0.000002
  (g-gl).g = 0.319E-05      g.g   = 0.338E-05  gl.gl    = 0.158E-05
 g(Force)  = 0.973E-06   g(Stress)= 0.241E-05 ortho     = 0.268E-06
 gamma     =   2.02134
 trial     =   0.48498
 opt step  =   1.93994  (harmonic =   2.68347) maximal distance =0.00054030
 next E    =   -44.331934   (d E  =  -0.00001)

[...]

 d Force = 0.2885732E-05[ 0.208E-05, 0.369E-05]  d Energy =-0.4456105E-04 0.474E-04
 d Force =-0.8700789E+00[-0.870E+00,-0.870E+00]  d Ewald  =-0.3549114E+01 0.268E+01

[...]

 d Force =-0.7760884E-06[-0.861E-06,-0.691E-06]  d Energy = 0.2927408E-04-0.301E-04
 d Force = 0.2888887E+00[ 0.289E+00, 0.289E+00]  d Ewald  = 0.1178726E+01-0.890E+00

[...]

 d Force = 0.1773108E-05[ 0.116E-05, 0.239E-05]  d Energy = 0.3092810E-04-0.292E-04
 d Force =-0.9055351E-01[-0.905E-01,-0.906E-01]  d Ewald  = 0.4576232E+00-0.548E+00

 Conjugate gradient step on ions:
 trial-energy change:   -0.000031  1 .order   -0.000002   -0.000002   -0.000001
  (g-gl).g = 0.343E-05      g.g   = 0.256E-05  gl.gl    = 0.338E-05
 g(Force)  = 0.153E-05   g(Stress)= 0.103E-05 ortho     =-0.253E-06
 gamma     =   1.01582
 trial     =   0.98217
 opt step  =   0.98682  (harmonic =   1.56741) maximal distance =0.00031400
 next E    =   -44.331924   (d E  =  -0.00003)

[...]

 eigenvalue-minimisations  :  1360
 total energy-change (2. order) :-0.7598166E-05  ( 0.6756139E-09)
 number of electron     128.0000000 magnetization       0.0000000
 augmentation part       -7.9457880 magnetization       0.0000000

[...]

 FEWALD executed in parallel

[...]

 eigenvalue-minimisations  :  1536
 total energy-change (2. order) :-0.2033898E-04  (-0.1070170E-07)
 number of electron     128.0000000 magnetization      -0.0000000
 augmentation part       -7.9457631 magnetization      -0.0000001

[...]

 eigenvalue-minimisations  :  1360
 total energy-change (2. order) : 0.9649557E-06  (-0.7799322E-09)
 number of electron     128.0000000 magnetization      -0.0000000
 augmentation part       -7.9457546 magnetization      -0.0000000

[...]

 Broyden mixing:
  rms(total) = 0.77045E-05    rms(broyden)= 0.77045E-05
  rms(prec ) = 0.84049E-05
  weight for this iteration     100.00

 eigenvalues of (default mixing * dielectric matrix)
  average eigenvalue GAMMA=   1.4343
  2.1894  2.1894  1.5254  0.9722  0.9722  0.7575

[...]

----------------------------------------- Iteration   34(   8)  ---------------------------------------

 eigenvalue-minimisations  :  1368
 total energy-change (2. order) : 0.9729411E-07  ( 0.3136109E-09)
 number of electron     128.0000000 magnetization       0.0000000
 augmentation part       -7.9457444 magnetization       0.0000000

 Free energy of the ion-electron system (eV)
  alpha Z        PSCENC =        94.30067770
  Ewald energy   TEWEN  =     17194.00348815
  -Hartree energ DENC   =    -24401.10513026
  -exchange      EXHF   =         0.00000000
  -V(xc)+E(xc)   XCENC  =       288.86613269
  PAW double counting   =     10745.52258632   -10634.18690562
  entropy T*S    EENTRO =        -0.00000000
  eigenvalues    EBANDS =     -1997.66262440
  atomic energy  EATOM  =      8665.92982304
  Solvation  Ediel_sol  =         0.00000000
  free energy    TOTEN  =       -44.33195237 eV

  energy without entropy =      -44.33195237  energy(sigma->0) =      -44.33195237

 average (electrostatic) potential at core
  the test charge radii are     1.2780  1.0178
  (the norm of the test charge is              1.0000)
       1 -45.6616       2 -45.6613       3 -45.6612       4 -45.6613       5 -69.0743
       6 -69.0741       7 -69.0739       8 -69.0744       9 -69.0744      10 -69.0738
      11 -69.0735      12 -69.0739      13 -69.0739      14 -69.0738      15 -69.0740
      16 -69.0738

 E-fermi :  -5.2306     XC(G=0):  -2.8352     alpha+bet : -1.7159

[...]

 spin component 2

[...]

 k-point     6 :       0.5000    0.5000    0.0000
  band No.  band energies     occupation
      1     -47.1849      1.00000
      2     -47.1847      1.00000
      3     -47.1825      1.00000
      4     -47.1823      1.00000
      5     -27.4010      1.00000
      6     -27.4009      1.00000
      7     -27.3712      1.00000
      8     -27.3711      1.00000
      9     -27.3520      1.00000
     10     -27.3518      1.00000
     11     -27.3334      1.00000
     12     -27.3331      1.00000
     13     -27.3230      1.00000
     14     -27.3229      1.00000
     15     -27.2917      1.00000
     16     -27.2916      1.00000
     17     -18.8543      1.00000
     18     -18.8541      1.00000
     19     -18.7423      1.00000
     20     -18.7422      1.00000
     21     -18.6891      1.00000
     22     -18.6890      1.00000
     23     -18.6730      1.00000
     24     -18.6728      1.00000
     25     -18.6094      1.00000
     26     -18.6093      1.00000
     27     -18.5600      1.00000
     28     -18.5599      1.00000
     29      -8.3958      1.00000
     30      -8.3957      1.00000
     31      -8.0833      1.00000
     32      -8.0832      1.00000
     33      -7.8655      1.00000
     34      -7.8654      1.00000
     35      -7.7096      1.00000
     36      -7.7096      1.00000
     37      -7.6964      1.00000
     38      -7.6964      1.00000
     39      -7.6952      1.00000
     40      -7.6952      1.00000
     41      -7.5674      1.00000
     42      -7.5674      1.00000
     43      -7.2768      1.00000
     44      -7.2766      1.00000
     45      -7.1409      1.00000
     46      -7.1409      1.00000
     47      -7.1384      1.00000
     48      -7.1383      1.00000
     49      -7.0447      1.00000
     50      -7.0446      1.00000
     51      -6.8275      1.00000
     52      -6.8274      1.00000
     53      -6.7200      1.00000
     54      -6.7200      1.00000
     55      -6.5259      1.00000
     56      -6.5258      1.00000
     57      -6.4771      1.00000
     58      -6.4770      1.00000
     59      -6.3242      1.00000
     60      -6.3242      1.00000
[...]
     74      -0.9627      0.00000
     75      -0.7934      0.00000
     76      -0.7934      0.00000
     77       0.0605      0.00000
     78       0.0606      0.00000
     79       0.0902      0.00000
     80       0.0902      0.00000
     81       0.3182      0.00000
     82       0.3183      0.00000
     83       0.4766      0.00000
     84       0.4767      0.00000
     85       1.4335      0.00000
     86       1.4336      0.00000
     87       1.4702      0.00000
     88       1.4703      0.00000

[...]

 soft charge-density along one line, spin component           2
         0         1         2         3         4         5         6         7         8         9
 total charge-density along one line

------------------------ aborting loop because EDIFF is reached ----------------------------------------

[...]

  FORCE on cell =-STRESS in cart. coord.  units (eV):
  Direction    XX          YY          ZZ          XY          YZ          ZX
  Alpha Z    94.30068    94.30068    94.30068
  Ewald   21296.82968 21296.75629-25399.59372     0.00000     0.00000    -0.17556
  Hartree 23055.15174 23055.08660-21709.13417     0.00000    -0.00000    -0.08887
  E(xc)    -505.06444  -505.06423  -503.01856     0.00000     0.00000    -0.00019
  Local  -46086.22315-46086.08487 45370.02629    -0.00000     0.00000     0.26202
  n-local   424.17173   424.17438   424.46466     0.00000     0.00000     0.00023
  augment     3.78055     3.78142     3.52308    -0.00002    -0.00009    -0.00197
  Kinetic  1717.05337  1717.03677  1719.40679     0.00000    -0.00000     0.00106
  Fock        0.00000     0.00000     0.00000     0.00000     0.00000     0.00000
  Total       0.00015    -0.01295    -0.02495     0.00000     0.00000    -0.00328
  in kB       0.00011    -0.00953    -0.01835     0.00000     0.00000    -0.00241

 VOLUME and BASIS-vectors are now :
  energy-cutoff  :      700.00
  volume of cell :     2177.81
      direct lattice vectors                 reciprocal lattice vectors
     7.091458561  0.000000000  0.000000000     0.141014714 -0.000000000  0.049991829
     0.000000000 12.284128696  0.000000000     0.000000000  0.081405855 -0.000000000
    -8.862874621  0.000000000 25.000000000     0.000000000  0.000000000  0.040000000

  length of vectors
     7.091458561 12.284128696 26.524527264     0.149613945  0.081405855  0.040000000

 FORCES acting on ions
    electron-ion (+dipol)            ewald-force                    non-local-force                 convergence-correction
   0.692E-02 -.188E-01 -.109E-03   0.160E-02 0.193E-01 -.564E-03   -.576E-19 -.614E-03 -.136E-19   0.689E-08 0.250E-05 0.129E-07
   0.692E-02 0.172E-01 -.108E-03   0.160E-02 -.183E-01 -.564E-03   0.407E-19 0.614E-03 -.136E-19   0.705E-08 -.251E-05 0.129E-07
   0.247E-02 -.188E-01 -.155E-03   -.194E-04 0.194E-01 -.794E-03   0.102E-19 -.614E-03 -.136E-19   0.708E-08 0.251E-05 0.138E-07
   0.247E-02 0.168E-01 -.154E-03   -.194E-04 -.204E-01 -.794E-03   0.678E-20 0.614E-03 -.136E-19   0.724E-08 -.251E-05 0.138E-07
   0.409E+02 0.708E+02 -.464E+03   -.412E+02 -.713E+02 0.465E+03   0.296E+00 0.514E+00 -.837E+00   0.433E-05 0.545E-05 -.104E-04
   0.409E+02 -.708E+02 -.464E+03   -.412E+02 0.713E+02 0.465E+03   0.296E+00 -.514E+00 -.837E+00   0.433E-05 -.545E-05 -.104E-04
   -.817E+02 0.495E-03 -.464E+03   0.823E+02 0.389E-03 0.465E+03   -.593E+00 0.339E-20 -.837E+00   -.133E-04 -.122E-08 -.681E-06
   0.409E+02 0.708E+02 -.464E+03   -.412E+02 -.713E+02 0.465E+03   0.296E+00 0.514E+00 -.837E+00   0.433E-05 0.545E-05 -.104E-04
   0.409E+02 -.708E+02 -.464E+03   -.412E+02 0.713E+02 0.465E+03   0.296E+00 -.514E+00 -.837E+00   0.433E-05 -.546E-05 -.104E-04
   -.817E+02 0.416E-03 -.464E+03   0.823E+02 -.109E-04 0.465E+03   -.593E+00 0.169E-20 -.837E+00   -.133E-04 0.378E-08 -.682E-06
   0.817E+02 0.404E-03 0.464E+03   -.823E+02 -.109E-04 -.465E+03   0.593E+00 0.000E+00 0.837E+00   0.133E-04 0.376E-08 0.687E-06
   -.409E+02 0.708E+02 0.464E+03   0.412E+02 -.713E+02 -.465E+03   -.296E+00 0.514E+00 0.837E+00   -.434E-05 0.545E-05 0.104E-04
   -.409E+02 -.708E+02 0.464E+03   0.412E+02 0.713E+02 -.465E+03   -.296E+00 -.514E+00 0.837E+00   -.434E-05 -.545E-05 0.104E-04
   0.817E+02 0.483E-03 0.464E+03   -.823E+02 0.389E-03 -.465E+03   0.593E+00 0.000E+00 0.837E+00   0.133E-04 -.123E-08 0.687E-06
   -.409E+02 0.708E+02 0.464E+03   0.412E+02 -.713E+02 -.465E+03   -.296E+00 0.514E+00 0.837E+00   -.433E-05 0.545E-05 0.104E-04
   -.409E+02 -.708E+02 0.464E+03   0.412E+02 0.713E+02 -.465E+03   -.296E+00 -.514E+00 0.837E+00   -.433E-05 -.545E-05 0.104E-04
   0.877E-01 -.177E-01 -.465E-01   -.142E-13 -.426E-13 0.739E-12   0.555E-16 0.333E-15 -.111E-15   0.322E-07 -.493E-08 0.849E-07

 POSITION                                       TOTAL-FORCE (eV/Angst)
     -1.42192      7.66625      4.67793        -0.000000      0.000857      0.000000
     -1.42192     11.76118      4.67793         0.000000     -0.000857     -0.000000
      2.12382      1.52418      4.67793         0.000000      0.000857      0.000000
      2.12382      5.61911      4.67793         0.000000     -0.000857     -0.000000
     -0.17441      5.73266      6.27544        -0.000132      0.000254     -0.000039
     -0.17441      1.41065      6.27544        -0.000132     -0.000254     -0.000039
     -0.37140      9.71371      6.27529         0.000319      0.000000      0.000367
      3.37132     11.87471      6.27544        -0.000132      0.000254     -0.000039
      3.37132      7.55271      6.27544        -0.000132     -0.000254     -0.000039
      3.17433      3.57165      6.27529         0.000319      0.000000      0.000367
      1.07329      3.57165      3.08059        -0.000319      0.000000     -0.000367
      0.87631     11.87471      3.08041         0.000132      0.000254      0.000039
      0.87631      7.55271      3.08041         0.000132     -0.000254      0.000039
      4.61903      9.71371      3.08059        -0.000319      0.000000     -0.000367
      4.42204      5.73266      3.08041         0.000132      0.000254      0.000039
      4.42204      1.41065      3.08041         0.000132     -0.000254      0.000039
    total drift:                                0.087674     -0.017739     -0.046507

  FREE ENERGIE OF THE ION-ELECTRON SYSTEM (eV)
  free  energy   TOTEN  =       -44.33195237 eV

  energy  without entropy=      -44.33195237  energy(sigma->0) =      -44.33195237

 d Force = 0.1787772E-06[ 0.119E-06, 0.238E-06]  d Energy = 0.1717080E-04-0.170E-04
 d Force =-0.2743132E-01[-0.274E-01,-0.274E-01]  d Ewald  = 0.1386533E+00-0.166E+00

 reached required accuracy - stopping structural energy minimisation
 writing wavefunctions

 total charge

[...]

 magnetization (x)

# of ion     s       p       d       f       tot
  1        0.000  -0.000  -0.000  -0.000  -0.000
  2       -0.000  -0.000  -0.000  -0.000  -0.000
  3        0.000  -0.000  -0.000  -0.000  -0.000
  4       -0.000  -0.000  -0.000  -0.000  -0.000
  5       -0.000   0.000  -0.000   0.000  -0.000
  6       -0.000  -0.000  -0.000   0.000  -0.000
  7        0.000   0.000   0.000   0.000   0.000
  8       -0.000   0.000  -0.000   0.000  -0.000
  9       -0.000  -0.000  -0.000   0.000  -0.000
 10        0.000   0.000   0.000   0.000   0.000
 11       -0.000   0.000  -0.000   0.000   0.000
 12        0.000  -0.000  -0.000   0.000  -0.000
 13       -0.000  -0.000   0.000   0.000  -0.000
 14       -0.000   0.000  -0.000   0.000   0.000
 15        0.000  -0.000  -0.000   0.000  -0.000
 16       -0.000  -0.000   0.000   0.000  -0.000
tot        0.000  -0.000  -0.000  -0.000  -0.000