 vasp.5.4.1 24Jun15 (build Dec 08 2016 12:24:04) complex

 executed on           IFC91_ompi date 2017.04.09  15:55:30

 INCAR:
 POTCAR:    PAW_PBE Co 02Aug2007
 POTCAR:    PAW_PBE O 08Apr2002

 POTCAR:    PAW_PBE Co 02Aug2007
   VRHFIN =Co: d8 s1

   TITEL  = PAW_PBE Co 02Aug2007
   POMASS =   58.933; ZVAL   =    9.000    mass and valenz
   ENMAX  =  267.968; ENMIN  =  200.976 eV

 POTCAR:    PAW_PBE O 08Apr2002
   VRHFIN =O: s2p4

   TITEL  = PAW_PBE O 08Apr2002
   POMASS =   16.000; ZVAL   =    6.000    mass and valenz
   ENMAX  =  400.000; ENMIN  =  300.000 eV

  PAW_PBE Co 02Aug2007                  :
  PAW_PBE O 08Apr2002                   :

 POSCAR: Surf-mp-714976
  positions in direct lattice
  velocities in cartesian coordinates
 exchange correlation table for  LEXCH =       42
   RHO(1)=    0.500       N(1)  =     2000
   RHO(2)=  100.500       N(2)  =     4000

 ion  position               nearest neighbor table
   1  0.269  0.929  0.093-   3 1.88   3 1.88   3 1.88   2 1.88   2 1.88   2 1.88
   2  0.602  0.596  0.131-   1 1.88   1 1.88   1 1.88
   3  0.936  0.262  0.055-   1 1.88   1 1.88   1 1.88

  LATTYP: Found a hexagonal cell.
 ALAT       =     2.8175490415
 C/A-ratio  =     8.7138767199

  Lattice vectors:

 A1 = (   2.8175495632,   0.0000000000,   0.0000000000)
 A2 = (  -1.4087747816,   2.4400688958,   0.0000000000)
 A3 = (   0.0000000000,   0.0000000000,  24.5517750000)

Analysis of symmetry for initial positions (statically):
 Subroutine PRICEL returns:
 Original cell was already a primitive cell.

 Routine SETGRP: Setting up the symmetry group for a
 hexagonal supercell.

 Subroutine GETGRP returns: Found 12 space group operations
 (whereof  1 operations were pure point group operations)
 out of a pool of 24 trial point group operations.

The static configuration has the point symmetry C_1 .
 The point group associated with its full space group is D_3d.

Analysis of symmetry for dynamics (positions and initial velocities):
 Subroutine PRICEL returns:
 Original cell was already a primitive cell.

 Routine SETGRP: Setting up the symmetry group for a
 hexagonal supercell.

 Subroutine GETGRP returns: Found 12 space group operations
 (whereof  1 operations were pure point group operations)
 out of a pool of 24 trial point group operations.

The dynamic configuration has the point symmetry C_1 .
 The point group associated with its full space group is D_3d.

Analysis of magnetic symmetry:
 Subroutine PRICEL returns:
 Original cell was already a primitive cell.

 Subroutine MAGSYM returns: Found 12 space group operations
 (whereof  1 operations were pure point group operations)
 out of a pool of 12 trial space group operations
 (whereof  1 operations were pure point group operations)
 and found also     1 'primitive' translations

The magnetic configuration has the point symmetry C_1 .
 The point group associated with its full space group is D_3d.

 KPOINTS: Automatic kpoint scheme

Automatic generation of k-mesh.
Space group operators:
 irot       det(A)        alpha          n_x          n_y          n_z        tau_x        tau_y        tau_z
    1     1.000000     0.000000     1.000000     0.000000     0.000000     0.000000     0.000000     0.000000
    2    -1.000000     0.000000     1.000000     0.000000     0.000000     0.538108     0.858024     0.185394
    3     1.000000   120.000000     0.000000     0.000000    -1.000000     0.198066     0.588970     0.000000
    4    -1.000000   120.000000     0.000000     0.000000    -1.000000     0.340042     0.269054     0.185394
    5     1.000000   120.000000     0.000000     0.000000     1.000000     0.609096     0.198066     0.000000
    6    -1.000000   120.000000     0.000000     0.000000     1.000000     0.929012     0.659958     0.185394
    7     1.000000   180.000000     1.000000     0.000000     0.000000     0.929012     0.858024     0.185394
    8    -1.000000   180.000000     1.000000     0.000000     0.000000     0.609096     0.000000     0.000000
    9     1.000000   180.000000     0.500000    -0.866025     0.000000     0.538108     0.269054     0.185394
   10    -1.000000   180.000000     0.500000    -0.866025     0.000000     0.000000     0.588970     0.000000
   11     1.000000   180.000000    -0.500000    -0.866025     0.000000     0.340042     0.659958     0.185394
   12    -1.000000   180.000000    -0.500000    -0.866025     0.000000     0.198066     0.198066     0.000000

 Subroutine IBZKPT returns following result:

 Found     19 irreducible k-points:

 Following reciprocal coordinates:
            Coordinates               Weight
  0.000000  0.000000  0.000000      1.000000
  0.083333 -0.000000  0.000000      6.000000
  0.166667  0.000000  0.000000      6.000000
  0.250000 -0.000000  0.000000      6.000000
  0.333333  0.000000  0.000000      6.000000
  0.416667 -0.000000  0.000000      6.000000
  0.500000 -0.000000  0.000000      3.000000
  0.083333  0.083333  0.000000      6.000000
  0.166667  0.083333  0.000000     12.000000
  0.250000  0.083333  0.000000     12.000000
  0.333333  0.083333  0.000000     12.000000
  0.416667  0.083333  0.000000     12.000000
  0.166667  0.166667  0.000000      6.000000
  0.250000  0.166667  0.000000     12.000000
  0.333333  0.166667  0.000000     12.000000
  0.416667  0.166667  0.000000      6.000000
  0.250000  0.250000  0.000000      6.000000
  0.333333  0.250000  0.000000     12.000000
  0.333333  0.333333  0.000000      2.000000

 Following cartesian coordinates:
            Coordinates               Weight
  0.000000  0.000000  0.000000      1.000000
  0.029577  0.017076  0.000000      6.000000
  0.059153  0.034152  0.000000      6.000000
  0.088730  0.051228  0.000000      6.000000
  0.118306  0.068304  0.000000      6.000000
  0.147883  0.085380  0.000000      6.000000
  0.177459  0.102456  0.000000      3.000000
  0.029577  0.051228  0.000000      6.000000
  0.059153  0.068304  0.000000     12.000000
  0.088730  0.085380  0.000000     12.000000
  0.118306  0.102456  0.000000     12.000000
  0.147883  0.119532  0.000000     12.000000
  0.059153  0.102456  0.000000      6.000000
  0.088730  0.119532  0.000000     12.000000
  0.118306  0.136608  0.000000     12.000000
  0.147883  0.153684  0.000000      6.000000
  0.088730  0.153684  0.000000      6.000000
  0.118306  0.170760  0.000000     12.000000
  0.118306  0.204912  0.000000      2.000000

 I would recommend the setting:
   dimension x,y,z NGX =    26 NGY =   26 NGZ =  226
 SYSTEM =  unknown system
 POSCAR =  Surf-mp-714976

 Startparameter for this run:
   NWRITE =      2    write-flag & timer
   PREC   = accura    normal or accurate (medium, high low for compatibility)
   ISTART =      0    job   : 0-new  1-cont  2-samecut
   ICHARG =      2    charge: 1-file 2-atom 10-const
   ISPIN  =      2    spin polarized calculation?
   LNONCOLLINEAR =      F non collinear calculations
   LSORBIT =      F    spin-orbit coupling
   INIWAV =      1    electr: 0-lowe 1-rand  2-diag
   LASPH  =      F    aspherical Exc in radial PAW
   METAGGA=      F    non-selfconsistent MetaGGA calc.

 Electronic Relaxation 1
   ENCUT  =  800.0 eV  58.80 Ry    7.67 a.u.   6.50  6.50 56.62*2*pi/ulx,y,z
   ENINI  =  800.0     initial cutoff
   ENAUG  =  605.4 eV  augmentation charge cutoff
   NELM   =    500;   NELMIN=  2; NELMDL=  0     # of ELM steps
   EDIFF  = 0.1E-06   stopping-criterion for ELM
   LREAL  =      F    real-space projection
   NLSPLINE    = F    spline interpolate recip. space projectors
   LCOMPAT=      F    compatible to vasp.4.4
   GGA_COMPAT  = T    GGA compatible to vasp.4.4-vasp.4.6
   LMAXPAW     = -100 max onsite density
   LMAXMIX     =    2 max onsite mixed and CHGCAR
   VOSKOWN=      0    Vosko Wilk Nusair interpolation
   ROPT   =    0.00000   0.00000
 Ionic relaxation
   EDIFFG = -.1E-02   stopping-criterion for IOM
   NSW    =    500    number of steps for IOM
   NBLOCK =      1;   KBLOCK =    500    inner block; outer block
   IBRION =      1    ionic relax: 0-MD 1-quasi-New 2-CG
   NFREE  =      0    steps in history (QN), initial steepest desc. (CG)
   ISIF   =      3    stress and relaxation
   IWAVPR =     11    prediction:  0-non 1-charg 2-wave 3-comb
   ISYM   =      2    0-nonsym 1-usesym 2-fastsym
   LCORR  =      T    Harris-Foulkes like correction to forces

   POTIM  = 0.5000    time-step for ionic-motion
   TEIN   =    0.0    initial temperature
   TEBEG  =    0.0;   TEEND  =   0.0 temperature during run
   SMASS  =  -3.00    Nose mass-parameter (am)
   estimated Nose-frequenzy (Omega)   =  0.10E-29 period in steps =****** mass=  -0.181E-27a.u.
   SCALEE = 1.0000    scale energy and forces
   NPACO  =    256;   APACO  = 16.0  distance and # of slots for P.C.
   PSTRESS=    0.0 pullay stress

  Mass of Ions in am
   POMASS =  58.93 16.00
  Ionic Valenz
   ZVAL   =   9.00  6.00
  Atomic Wigner-Seitz radii
  virtual crystal weights
   VCA    =   1.00  1.00
   NELECT =      21.0000    total number of electrons
   NUPDOWN=      -1.0000    fix difference up-down

 DOS related values:
   EMIN   =  10.00;   EMAX   =-10.00  energy-range for DOS
   EFERMI =   0.00
   ISMEAR =     0;   SIGMA  =   0.20  broadening in eV -4-tet -1-fermi 0-gaus

 Electronic relaxation 2 (details)
   IALGO  =     38    algorithm
   LDIAG  =      T    sub-space diagonalisation (order eigenvalues)
   LSUBROT=      F    optimize rotation matrix (better conditioning)
   TURBO    =      0    0=normal 1=particle mesh
   IRESTART =      0    0=no restart 2=restart with 2 vectors
   NREBOOT  =      0    no. of reboots
   NMIN     =      0    reboot dimension
   EREF     =   0.00    reference energy to select bands
   IMIX   =      4    mixing-type and parameters
     AMIX     =   0.40;   BMIX     =  1.00
     AMIX_MAG =   1.60;   BMIX_MAG =  1.00
     AMIN     =   0.10
     WC   =   100.;   INIMIX=   1;  MIXPRE=   1;  MAXMIX= -45

 Intra band minimization:
   WEIMIN = 0.0010     energy-eigenvalue tresh-hold
   EBREAK =  0.16E-08  absolut break condition
   DEPER  =   0.30     relativ break condition

   TIME   =   0.40     timestep for ELM

  volume/ion in A,a.u.               =      56.26       379.69
  Fermi-wavevector in a.u.,A,eV,Ry     =   0.817264  1.544405  9.087611  0.667921
  Thomas-Fermi vector in A             =   1.927681

 Write flags
   LWAVE  =      F    write WAVECAR
   LCHARG =      F    write CHGCAR
   LVTOT  =      F    write LOCPOT, total local potential
   LVHAR  =      T    write LOCPOT, Hartree potential only
   LELF   =      F    write electronic localiz. function (ELF)
   LORBIT =     11    0 simple, 1 ext, 2 COOP (PROOUT)

 Dipole corrections
   LMONO  =      F    monopole corrections only (constant potential shift)
   LDIPOL =      F    correct potential (dipole corrections)
   IDIPOL =      0    1-x, 2-y, 3-z, 4-all directions
   EPSILON=  1.0000000 bulk dielectric constant

 Exchange correlation treatment:
   GGA     =    BO    GGA type
   VOSKOWN=      0    Vosko Wilk Nusair interpolation
   LHFCALC =     F    Hartree Fock is set to
   LHFONE  =     F    Hartree Fock one center treatment
   AEXX    =    0.0000 exact exchange contribution

 vdW DFT:
   LUSE_VDW   =     T    switch on vdW DFT
[...]
 k-point  5 :   0.3333 0.0000 0.0000  plane waves:    8689
 k-point  6 :   0.4167-0.0000 0.0000  plane waves:    8648
 k-point  7 :   0.5000-0.0000 0.0000  plane waves:    8610
 k-point  8 :   0.0833 0.0833 0.0000  plane waves:    8733
 k-point  9 :   0.1667 0.0833 0.0000  plane waves:    8728
 k-point 10 :   0.2500 0.0833 0.0000  plane waves:    8714
 k-point 11 :   0.3333 0.0833 0.0000  plane waves:    8645
 k-point 12 :   0.4167 0.0833 0.0000  plane waves:    8614
 k-point 13 :   0.1667 0.1667 0.0000  plane waves:    8695
 k-point 14 :   0.2500 0.1667 0.0000  plane waves:    8662
 k-point 15 :   0.3333 0.1667 0.0000  plane waves:    8637
 k-point 16 :   0.4167 0.1667 0.0000  plane waves:    8652
 k-point 17 :   0.2500 0.2500 0.0000  plane waves:    8628
 k-point 18 :   0.3333 0.2500 0.0000  plane waves:    8643
 k-point 19 :   0.3333 0.3333 0.0000  plane waves:    8652

 maximum and minimum number of plane-waves per node :      2198     2129

 maximum number of plane-waves:      8733
 maximum index in each direction:
   IXMAX=    6   IYMAX=    6   IZMAX=   56
   IXMIN=   -6   IYMIN=   -6   IZMIN=  -56

 NGX is ok and might be reduce to  26
 NGY is ok and might be reduce to  26
 NGZ is ok and might be reduce to 226

 parallel 3D FFT for wavefunctions:
    minimum data exchange during FFTs selected (reduces bandwidth)
 parallel 3D FFT for charge:
    minimum data exchange during FFTs selected (reduces bandwidth)

 Broyden mixing: mesh for mixing (old mesh)
   NGX = 13   NGY = 13   NGZ =113
  (NGX  = 56   NGY  = 56   NGZ  =480)
  gives a total of  19097 points

 initial charge density was supplied:
 charge density of overlapping atoms calculated
 number of electron      21.0000000 magnetization       3.0000000
 keeping initial charge density in first step

 Maximum index for augmentation-charges         1480 (set IRDMAX)

 First call to EWALD:  gamma=   0.321
 Maximum number of real-space cells 6x 6x 1
 Maximum number of reciprocal cells 2x 2x11

 FEWALD executed in parallel

----------------------------------------- Iteration    1(   1)  ---------------------------------------

vdW kernel read from vdw_kernel.bindat
  0.0000  0.2424  0.5071  0.7962  1.1119  1.4567  1.8333  2.2446  2.6937  3.1842
  3.7199  4.3049  4.9438  5.6415  6.4036  7.2358  8.1446  9.1372 10.2212 11.4050
 12.6979 14.1099 15.6519 17.3360 19.1751 21.1837 23.3773 25.7729 28.3892 31.2465
 34.3669 37.7748 41.4965 45.5611 50.0000

 eigenvalue-minimisations  :  1216
 total energy-change (2. order) : 0.2155049E+03  (-0.9881672E+03)
 number of electron      21.0000000 magnetization       3.0000000
 augmentation part       21.0000000 magnetization       3.0000000

 Free energy of the ion-electron system (eV)
  alpha Z        PSCENC =        11.61788555
  Ewald energy   TEWEN  =      7999.23231025
  -Hartree energ DENC   =     -9485.88416467
  -exchange      EXHF   =         0.00000000
  -V(xc)+E(xc)   XCENC  =        71.34613640
  PAW double counting   =      1470.59076258    -1530.72500794
  entropy T*S    EENTRO =        -0.04549891
  eigenvalues    EBANDS =       -10.00340054
  atomic energy  EATOM  =      1689.37588947
  Solvation  Ediel_sol  =         0.00000000
  free energy    TOTEN  =       215.50491217 eV

  energy without entropy =      215.55041108  energy(sigma->0) =      215.52766163

[...]

 eigenvalue-minimisations  :  1592
 total energy-change (2. order) :-0.1967804E+03  (-0.1826062E+03)
 number of electron      21.0000000 magnetization       3.0000000
 augmentation part       21.0000000 magnetization       3.0000000

[...]

 Broyden mixing:
  rms(total) = 0.28238E+01    rms(broyden)= 0.28238E+01
  rms(prec ) = 0.29271E+01
  weight for this iteration     100.00

[...]

 eigenvalues of (default mixing * dielectric matrix)
  average eigenvalue GAMMA=   0.2943
  0.2943

[...]

 average (electrostatic) potential at core
  the test charge radii are     1.0452  0.7215
  (the norm of the test charge is              1.0000)
       1 -95.4788       2 -81.5131       3 -81.5118

 E-fermi :  -6.0108     XC(G=0):  -3.0430     alpha+bet : -2.0268

 spin component 1

 k-point     1 :       0.0000    0.0000    0.0000
  band No.  band energies     occupation
      1     -25.2936      1.00000
      2     -22.9572      1.00000
      3     -11.6296      1.00000
      4     -11.6296      1.00000
      5     -11.5778      1.00000
      6      -7.9605      1.00000
      7      -7.9605      1.00000
      8      -7.7561      1.00000
      9      -7.3353      1.00000
     10      -7.3353      1.00000
     11      -6.1512      0.83968
     12      -3.5382      0.00000
     13      -3.5382      0.00000
     14       0.5804      0.00000
     15       0.7323      0.00000
     16       1.0220      0.00000

[...]

 soft charge-density along one line, spin component           1
         0         1         2         3         4         5         6         7         8         9
 total charge-density along one line

[...]

------------------------ aborting loop because EDIFF is reached ----------------------------------------

 total charge

# of ion     s       p       d       tot
  1        0.452   0.726   7.210   8.389
  2        1.591   3.365   0.000   4.956
  3        1.591   3.364   0.000   4.955
tot        3.635   7.455   7.210  18.300

 magnetization (x)

[...]

  FORCE on cell =-STRESS in cart. coord.  units (eV):
  Direction    XX          YY          ZZ          XY          YZ          ZX
  Alpha Z    11.61789    11.61789    11.61789
  Ewald    9037.06090  9037.06027-10074.88916    -0.00063    -0.00018     0.00049
  Hartree  9284.20270  9284.20265 -9091.54926    -0.00003     0.00001     0.00003
  E(xc)    -106.74087  -106.74089  -106.41573    -0.00001    -0.00000    -0.00000
  Local  -18679.26940-18679.26889 18794.19482     0.00042     0.00009    -0.00035
  n-local   -45.40168   -45.29507   -47.31205     0.36266    -1.09925    -2.05979
  augment   166.87586   166.87589   169.92924     0.00006    -0.00002     0.00004
  Kinetic   331.06839   332.10684   344.38248     0.63152     1.53382     2.81051
  Fock        0.00000     0.00000     0.00000     0.00000     0.00000     0.00000
  Total      -0.01377    -0.01377    -0.04178     0.00000    -0.00000    -0.00000
  in kB      -0.13068    -0.13068    -0.39657     0.00000    -0.00000    -0.00000

 VOLUME and BASIS-vectors are now :
  energy-cutoff  :      800.00
  volume of cell :      168.79
      direct lattice vectors                 reciprocal lattice vectors
     2.817549563  0.000000000  0.000000000     0.354918335  0.204912247  0.000000000
    -1.408774782  2.440068896  0.000000000     0.000000000  0.409824494  0.000000000
     0.000000000  0.000000000 24.551775000     0.000000000  0.000000000  0.040730253

[...]

 FORCES acting on ions
    electron-ion (+dipol)            ewald-force                    non-local-force                 convergence-correction
   -.176E-04 0.164E-04 0.624E-03   0.984E-08 -.330E-08 -.630E-02   -.136E-19 0.000E+00 0.000E+00   -.223E-10 -.353E-11 -.419E-06
   0.154E-02 -.922E-03 -.874E+03   0.260E-03 -.951E-04 0.900E+03   -.208E-16 0.416E-16 -.258E+02   -.687E-08 0.383E-08 0.319E-03
   -.153E-02 0.923E-03 0.874E+03   -.260E-03 0.951E-04 -.900E+03   -.139E-16 -.416E-16 0.258E+02   0.686E-08 -.383E-08 -.320E-03
   -.153E-04 0.174E-04 -.435E-01   0.360E-15 0.124E-13 0.000E+00   -.347E-16 0.000E+00 0.000E+00   -.380E-10 -.766E-12 -.786E-06

 POSITION                                       TOTAL-FORCE (eV/Angst)
     -0.55070      2.26685      2.27588         0.000000      0.000000      0.000000
      0.85808      1.45350      3.21030        -0.000000      0.000000     -0.000528
      2.26686      0.64014      1.34148         0.000000     -0.000000      0.000528
    total drift:                               -0.000015      0.000017     -0.043544

  FREE ENERGIE OF THE ION-ELECTRON SYSTEM (eV)
  free  energy   TOTEN  =       -13.58619565 eV

  energy  without entropy=      -13.53927033  energy(sigma->0) =      -13.56273299

 Quasi-Newton relaxation of ions (Broydens 2nd method)
  g(Force)  = 0.269E-07   g(Stress)= 0.610E-05

 Reset! Starting new Quasi-Newton update for ions

[...]

 d Force =-0.1317862E-06[-0.290E-06, 0.269E-07]  d Energy =-0.3114007E-04 0.310E-04
 d Force =-0.4582384E-01[-0.458E-01,-0.458E-01]  d Ewald  =-0.4048645E+01 0.400E+01

[...]

 retain information from N=  1 steps
 eigenvalues of (default step * inverse Hessian matrix)
  average eigenvalue of G=   0.7093
 eigenvalue spectrum of G is  0.7093

[...]

 Broyden mixing:
  rms(total) = 0.83212E-01    rms(broyden)= 0.29211E-01
  rms(prec ) = 0.29554E-01
  weight for this iteration     100.00
  WARNING: grid for Broyden might be to small

[...]

 d Force = 0.1024682E-05[ 0.277E-07, 0.202E-05]  d Energy = 0.1601336E-04-0.150E-04
 d Force = 0.3190207E+00[ 0.319E+00, 0.319E+00]  d Ewald  = 0.1375306E+01-0.106E+01

[...]

 d Force =-0.1593936E-06[-0.332E-06, 0.137E-07]  d Energy = 0.3458194E-04-0.347E-04
 d Force = 0.1572977E+00[ 0.157E+00, 0.157E+00]  d Ewald  = 0.1029253E+01-0.872E+00

[...]

 d Force = 0.1399089E-06[-0.787E-07, 0.359E-06]  d Energy = 0.5634318E-04-0.562E-04
 d Force =-0.1696012E+00[-0.170E+00,-0.170E+00]  d Ewald  = 0.3027340E+00-0.472E+00

[...]

 d Force = 0.8812921E-09[ 0.313E-08,-0.137E-08]  d Energy =-0.7157803E-04 0.716E-04
 d Force =-0.2954757E-02[-0.295E-02,-0.295E-02]  d Ewald  = 0.1297276E+00-0.133E+00

[...]

 d Force =-0.4698923E-06[-0.713E-06,-0.227E-06]  d Energy = 0.2884835E-05-0.335E-05
 d Force = 0.2141114E+00[ 0.214E+00, 0.214E+00]  d Ewald  = 0.2350413E+00-0.209E-01

[...]

 Broyden mixing:
  rms(total) = 0.78873E-01    rms(broyden)= 0.70695E-01
  rms(prec ) = 0.72876E-01
  weight for this iteration     100.00
  WARNING: grid for Broyden might be to small

[...]

 d Force = 0.3868316E-06[-0.807E-07, 0.854E-06]  d Energy = 0.7208747E-04-0.717E-04
 d Force =-0.2566706E+00[-0.257E+00,-0.257E+00]  d Ewald  = 0.4634433E-01-0.303E+00

[...]

 d Force =-0.4213411E-09[-0.151E-08, 0.670E-09]  d Energy =-0.1145385E-04 0.115E-04
 d Force = 0.2130825E-02[ 0.213E-02, 0.213E-02]  d Ewald  = 0.4598483E+00-0.458E+00

[...]

 FEWALD executed in parallel

[...]

 eigenvalue-minimisations  :  1240
 total energy-change (2. order) : 0.1622411E-05  (-0.3910119E-07)
 number of electron      21.0000000 magnetization       0.9398787
 augmentation part        6.2516685 magnetization       0.6553775

 Broyden mixing:
  rms(total) = 0.25452E-03    rms(broyden)= 0.25452E-03
  rms(prec ) = 0.33632E-03
  weight for this iteration     100.00

 eigenvalues of (default mixing * dielectric matrix)
  average eigenvalue GAMMA=   1.9396
 16.1766 16.1766  3.3736  3.3736  4.3009  3.8167  3.1314  3.1314  2.7476  2.7476
  2.3784  1.6396  1.6396  0.4890  0.4890  1.4121  1.4121  0.4811  0.4811  0.0569
  0.0000  0.0003  0.9790  0.9790  0.3258  0.8835  0.8835  0.7535  0.7535  0.5352
  0.5352  0.4570  0.4805  0.5162  0.6132  0.6132  0.6489  0.6489  0.7045  0.7045
  0.6176  0.6565  0.6565

[...]

----------------------------------------- Iteration   10(  65)  ---------------------------------------

 eigenvalue-minimisations  :  1200
 total energy-change (2. order) :-0.8423717E-07  (-0.9111967E-08)
 number of electron      21.0000000 magnetization       0.9398787
 augmentation part        6.2516685 magnetization       0.6553775

 Free energy of the ion-electron system (eV)
  alpha Z        PSCENC =        11.61953064
  Ewald energy   TEWEN  =      8000.24749337
  -Hartree energ DENC   =     -9477.55874848
  -exchange      EXHF   =         0.00000000
  -V(xc)+E(xc)   XCENC  =        71.42501392
  PAW double counting   =      1960.70805282    -2020.97883107
  entropy T*S    EENTRO =        -0.04690123
  eigenvalues    EBANDS =      -248.37775737
  atomic energy  EATOM  =      1689.37588947
  Solvation  Ediel_sol  =         0.00000000
  free energy    TOTEN  =       -13.58625792 eV

  energy without entropy =      -13.53935669  energy(sigma->0) =      -13.56280731

 average (electrostatic) potential at core
  the test charge radii are     1.0452  0.7215
  (the norm of the test charge is              1.0000)
       1 -95.4933       2 -81.5274       3 -81.5261

 E-fermi :  -6.0248     XC(G=0):  -3.2682     alpha+bet : -2.0271

[...]

 spin component 2

[...]

 k-point    19 :       0.3333    0.3333    0.0000
  band No.  band energies     occupation
      1     -23.2011      1.00000
      2     -23.2002      1.00000
      3     -11.4427      1.00000
      4     -11.4420      1.00000
      5     -10.9290      1.00000
      6      -9.0700      1.00000
      7      -9.0690      1.00000
      8      -8.8127      1.00000
      9      -6.8760      1.00000
     10      -5.9461      0.28877
     11      -5.9457      0.28798
     12      -3.8923      0.00000
     13      -3.8920      0.00000
     14       7.3787      0.00000
     15       7.4831      0.00000
     16       8.2768      0.00000

[...]

 soft charge-density along one line, spin component           2
         0         1         2         3         4         5         6         7         8         9
 total charge-density along one line

------------------------ aborting loop because EDIFF is reached ----------------------------------------

[...]

  FORCE on cell =-STRESS in cart. coord.  units (eV):
  Direction    XX          YY          ZZ          XY          YZ          ZX
  Alpha Z    11.61953    11.61953    11.61953
  Ewald    9038.07611  9038.07547-10075.90437    -0.00063    -0.00018     0.00049
  Hartree  9285.25353  9285.25348 -9092.59793    -0.00003     0.00001     0.00003
  E(xc)    -106.74068  -106.74070  -106.41549    -0.00001    -0.00000    -0.00000
  Local  -18681.33849-18681.33797 18796.26493     0.00042     0.00009    -0.00035
  n-local   -45.39378   -45.28699   -47.30257     0.36213    -1.09935    -2.06081
  augment   166.87923   166.87925   169.93075     0.00005    -0.00003     0.00005
  Kinetic   331.07320   332.11305   344.38219     0.63097     1.53415     2.81241
  Fock        0.00000     0.00000     0.00000     0.00000     0.00000     0.00000
  Total       0.00189     0.00189    -0.02296     0.00000     0.00000     0.00000
  in kB       0.01793     0.01793    -0.21799     0.00000     0.00000     0.00000

 VOLUME and BASIS-vectors are now :
  energy-cutoff  :      800.00
  volume of cell :      168.77
      direct lattice vectors                 reciprocal lattice vectors
     2.817350102 -0.000000000  0.000000000     0.354943462  0.204926754  0.000000000
    -1.408675051  2.439896158  0.000000000     0.000000000  0.409853508  0.000000000
     0.000000000  0.000000000 24.551775000     0.000000000  0.000000000  0.040730253

  length of vectors
     2.817350102  2.817349581 24.551775000     0.409853432  0.409853508  0.040730253

 FORCES acting on ions
    electron-ion (+dipol)            ewald-force                    non-local-force                 convergence-correction
   -.264E-04 0.491E-05 0.638E-03   0.985E-08 -.330E-08 -.630E-02   0.000E+00 0.000E+00 0.000E+00   -.276E-09 -.814E-10 -.460E-07
   0.154E-02 -.922E-03 -.874E+03   0.260E-03 -.951E-04 0.900E+03   -.139E-16 0.139E-16 -.259E+02   -.425E-08 0.315E-08 0.119E-01
   -.153E-02 0.922E-03 0.874E+03   -.260E-03 0.951E-04 -.900E+03   0.139E-16 -.139E-16 0.259E+02   0.432E-08 -.305E-08 -.119E-01
   -.240E-04 0.586E-05 -.435E-01   -.156E-13 -.106E-13 -.114E-12   0.000E+00 0.000E+00 0.355E-14   -.202E-09 0.187E-10 0.222E-06

 POSITION                                       TOTAL-FORCE (eV/Angst)
     -0.55066      2.26669      2.27588         0.000000      0.000000      0.000000
      0.85802      1.45339      3.21044         0.000000     -0.000000     -0.000512
      2.26669      0.64009      1.34133        -0.000000      0.000000      0.000512
    total drift:                               -0.000024      0.000006     -0.043529

  FREE ENERGIE OF THE ION-ELECTRON SYSTEM (eV)
  free  energy   TOTEN  =       -13.58625792 eV

  energy  without entropy=      -13.53935669  energy(sigma->0) =      -13.56280731

 d Force =-0.3009253E-07[-0.268E-07,-0.334E-07]  d Energy =-0.5465262E-05 0.544E-05
 d Force = 0.4705951E-01[ 0.471E-01, 0.471E-01]  d Ewald  =-0.5447923E+00 0.592E+00

 Quasi-Newton relaxation of ions (Broydens 2nd method)
  g(Force)  = 0.253E-07   g(Stress)= 0.115E-06

 retain information from N=  1 steps
 eigenvalues of (default step * inverse Hessian matrix)
  average eigenvalue of G=   0.1012
 eigenvalue spectrum of G is  0.1012

 reached required accuracy - stopping structural energy minimisation

 total charge

[...]

 magnetization (x)

# of ion     s       p       d       tot
  1        0.007   0.019   0.712   0.738
  2        0.002   0.083   0.000   0.085
  3        0.002   0.083   0.000   0.085
tot        0.011   0.185   0.712   0.908