 vasp.5.4.1 24Jun15 (build Feb  9 2019 14:26:05) complex
 executed on           IFC91_ompi date 2019.12.23  17:45:28

 INCAR:
 POTCAR:    PAW_PBE Mn_pv 02Aug2007
 POTCAR:    PAW_PBE Se 06Sep2000

 POTCAR:    PAW_PBE Mn_pv 02Aug2007
   VRHFIN =Mn: 3p4s3d

   TITEL  = PAW_PBE Mn_pv 02Aug2007
   POMASS =   54.938; ZVAL   =   13.000    mass and valenz
   ENMAX  =  269.864; ENMIN  =  202.398 eV

 POTCAR:    PAW_PBE Se 06Sep2000
   VRHFIN =Se: s2p4

   TITEL  = PAW_PBE Se 06Sep2000
   POMASS =   78.960; ZVAL   =    6.000    mass and valenz
   ENMAX  =  211.555; ENMIN  =  158.666 eV

  PAW_PBE Mn_pv 02Aug2007               :
  PAW_PBE Se 06Sep2000                  :

 POSCAR: bulk@JVASP-14431_mp-604910
  positions in direct lattice
  velocities in cartesian coordinates
 exchange correlation table for  LEXCH =        8
   RHO(1)=    0.500       N(1)  =     2000
   RHO(2)=  100.500       N(2)  =     4000

 ion  position               nearest neighbor table
   1  0.864  0.864  0.119-   4 2.38   4 2.38   3 2.38   3 2.38   2 2.53   2 2.53   2 2.53   2 2.53

   2  0.364  0.364  0.119-   4 2.38   4 2.38   3 2.38   3 2.38   1 2.53   1 2.53   1 2.53   1 2.53

   3  0.864  0.364  0.179-   1 2.38   2 2.38   1 2.38   2 2.38
   4  0.364  0.864  0.059-   1 2.38   2 2.38   2 2.38   1 2.38

  LATTYP: Found a simple tetragonal cell.
 ALAT       =     3.5767710000
 C/A-ratio  =     7.3380029082

  Lattice vectors:

 A1 = (   3.5767710000,   0.0000000000,   0.0000000000)
 A2 = (   0.0000000000,   3.5767710000,   0.0000000000)
 A3 = (   0.0000000000,   0.0000000000,  26.2463560000)

Analysis of symmetry for initial positions (statically):
 Subroutine PRICEL returns:
 Original cell was already a primitive cell.

 Routine SETGRP: Setting up the symmetry group for a
 simple tetragonal supercell.

 Subroutine GETGRP returns: Found 16 space group operations
 (whereof  1 operations were pure point group operations)
 out of a pool of 16 trial point group operations.

The static configuration has the point symmetry C_1 .
 The point group associated with its full space group is D_4h.

Analysis of symmetry for dynamics (positions and initial velocities):
 Subroutine PRICEL returns:
 Original cell was already a primitive cell.

[...]

The dynamic configuration has the point symmetry C_1 .
 The point group associated with its full space group is D_4h.

Analysis of structural, dynamic, and magnetic symmetry:
 Subroutine PRICEL returns:
 Original cell was already a primitive cell.

 Routine SETGRP: Setting up the symmetry group for a
 simple tetragonal supercell.

 Subroutine GETGRP returns: Found  8 space group operations
 (whereof  1 operations were pure point group operations)
 out of a pool of 16 trial point group operations.

The (compounded) configuration has the point symmetry C_1 .
 The point group associated with its full space group is C_4h.

 KPOINTS: KPOINTS with grid den

Automatic generation of k-mesh.
Space group operators:
 irot       det(A)        alpha          n_x          n_y          n_z        tau_x        tau_y        tau_z
    1     1.000000     0.000000     1.000000     0.000000     0.000000     0.000000     0.000000     0.000000
    2    -1.000000     0.000000     1.000000     0.000000     0.000000     0.228718     0.228718     0.237990
    3     1.000000    90.000000     0.000000     0.000000    -1.000000     0.228718     0.500000     0.000000
    4    -1.000000    90.000000     0.000000     0.000000    -1.000000     0.000000     0.728718     0.237990
    5     1.000000   180.000000     0.000000     0.000000     1.000000     0.728718     0.728718     0.000000
    6    -1.000000   180.000000     0.000000     0.000000     1.000000     0.500000     0.500000     0.237990
    7     1.000000    90.000000     0.000000     0.000000     1.000000     0.500000     0.228718     0.000000
    8    -1.000000    90.000000     0.000000     0.000000     1.000000     0.728718     0.000000     0.237990

 Subroutine IBZKPT returns following result:

 Found     43 irreducible k-points:

 Following reciprocal coordinates:
            Coordinates               Weight
  0.000000  0.000000  0.000000      1.000000
  0.076923  0.000000  0.000000      4.000000
  0.153846  0.000000  0.000000      4.000000
  0.230769  0.000000  0.000000      4.000000
  0.307692  0.000000  0.000000      4.000000
  0.384615  0.000000  0.000000      4.000000
  0.461538  0.000000  0.000000      4.000000
  0.076923  0.076923  0.000000      4.000000
  0.153846  0.076923  0.000000      4.000000
  0.230769  0.076923  0.000000      4.000000
  0.307692  0.076923  0.000000      4.000000
  0.384615  0.076923  0.000000      4.000000
  0.461538  0.076923  0.000000      4.000000
 -0.461538  0.076923  0.000000      4.000000
 -0.384615  0.076923  0.000000      4.000000
 -0.307692  0.076923  0.000000      4.000000
 -0.230769  0.076923  0.000000      4.000000
 -0.153846  0.076923  0.000000      4.000000
  0.153846  0.153846  0.000000      4.000000
  0.230769  0.153846  0.000000      4.000000
  0.307692  0.153846  0.000000      4.000000
  0.384615  0.153846  0.000000      4.000000
  0.461538  0.153846  0.000000      4.000000
 -0.461538  0.153846  0.000000      4.000000
 -0.384615  0.153846  0.000000      4.000000
 -0.307692  0.153846  0.000000      4.000000
 -0.230769  0.153846  0.000000      4.000000
  0.230769  0.230769  0.000000      4.000000
  0.307692  0.230769  0.000000      4.000000
  0.384615  0.230769  0.000000      4.000000
  0.461538  0.230769  0.000000      4.000000
 -0.461538  0.230769  0.000000      4.000000
 -0.384615  0.230769  0.000000      4.000000
 -0.307692  0.230769  0.000000      4.000000
  0.307692  0.307692  0.000000      4.000000
  0.384615  0.307692  0.000000      4.000000
  0.461538  0.307692  0.000000      4.000000
 -0.461538  0.307692  0.000000      4.000000
 -0.384615  0.307692  0.000000      4.000000
  0.384615  0.384615  0.000000      4.000000
  0.461538  0.384615  0.000000      4.000000
 -0.461538  0.384615  0.000000      4.000000
  0.461538  0.461538  0.000000      4.000000

 Following cartesian coordinates:
            Coordinates               Weight
  0.000000  0.000000  0.000000      1.000000
  0.021506  0.000000  0.000000      4.000000
  0.043013  0.000000  0.000000      4.000000
  0.064519  0.000000  0.000000      4.000000
  0.086025  0.000000  0.000000      4.000000
  0.107531  0.000000  0.000000      4.000000
  0.129038  0.000000  0.000000      4.000000
  0.021506  0.021506  0.000000      4.000000
  0.043013  0.021506  0.000000      4.000000
  0.064519  0.021506  0.000000      4.000000
  0.086025  0.021506  0.000000      4.000000
  0.107531  0.021506  0.000000      4.000000
  0.129038  0.021506  0.000000      4.000000
 -0.129038  0.021506  0.000000      4.000000
 -0.107531  0.021506  0.000000      4.000000
 -0.086025  0.021506  0.000000      4.000000
 -0.064519  0.021506  0.000000      4.000000
 -0.043013  0.021506  0.000000      4.000000
  0.043013  0.043013  0.000000      4.000000
  0.064519  0.043013  0.000000      4.000000
  0.086025  0.043013  0.000000      4.000000
  0.107531  0.043013  0.000000      4.000000
  0.129038  0.043013  0.000000      4.000000
 -0.129038  0.043013  0.000000      4.000000
 -0.107531  0.043013  0.000000      4.000000
 -0.086025  0.043013  0.000000      4.000000
 -0.064519  0.043013  0.000000      4.000000
  0.064519  0.064519  0.000000      4.000000
  0.086025  0.064519  0.000000      4.000000
  0.107531  0.064519  0.000000      4.000000
  0.129038  0.064519  0.000000      4.000000
 -0.129038  0.064519  0.000000      4.000000
 -0.107531  0.064519  0.000000      4.000000
 -0.086025  0.064519  0.000000      4.000000
  0.086025  0.086025  0.000000      4.000000
  0.107531  0.086025  0.000000      4.000000
  0.129038  0.086025  0.000000      4.000000
 -0.129038  0.086025  0.000000      4.000000
 -0.107531  0.086025  0.000000      4.000000
  0.107531  0.107531  0.000000      4.000000
  0.129038  0.107531  0.000000      4.000000
 -0.129038  0.107531  0.000000      4.000000
  0.129038  0.129038  0.000000      4.000000

 Subroutine IBZKPT_HF returns following result:

 Found    169 k-points in 1st BZ
 the following    169 k-points will be used (e.g. in the exchange kernel)
 Following reciprocal coordinates:   # in IRBZ
  0.000000  0.000000  0.000000    0.00591716   1 t-inv F
  0.076923  0.000000  0.000000    0.00591716   2 t-inv F
  0.153846  0.000000  0.000000    0.00591716   3 t-inv F
  0.230769  0.000000  0.000000    0.00591716   4 t-inv F
  0.307692  0.000000  0.000000    0.00591716   5 t-inv F
  0.384615  0.000000  0.000000    0.00591716   6 t-inv F
  0.461538  0.000000  0.000000    0.00591716   7 t-inv F
  0.076923  0.076923  0.000000    0.00591716   8 t-inv F
  0.153846  0.076923  0.000000    0.00591716   9 t-inv F
  0.230769  0.076923  0.000000    0.00591716  10 t-inv F
  0.307692  0.076923  0.000000    0.00591716  11 t-inv F
  0.384615  0.076923  0.000000    0.00591716  12 t-inv F
  0.461538  0.076923  0.000000    0.00591716  13 t-inv F
 -0.461538  0.076923  0.000000    0.00591716  14 t-inv F
 -0.384615  0.076923  0.000000    0.00591716  15 t-inv F
 -0.307692  0.076923  0.000000    0.00591716  16 t-inv F
 -0.230769  0.076923  0.000000    0.00591716  17 t-inv F
 -0.153846  0.076923  0.000000    0.00591716  18 t-inv F
  0.153846  0.153846  0.000000    0.00591716  19 t-inv F
  0.230769  0.153846  0.000000    0.00591716  20 t-inv F
  0.307692  0.153846  0.000000    0.00591716  21 t-inv F
  0.384615  0.153846  0.000000    0.00591716  22 t-inv F
  0.461538  0.153846  0.000000    0.00591716  23 t-inv F
 -0.461538  0.153846  0.000000    0.00591716  24 t-inv F
 -0.384615  0.153846  0.000000    0.00591716  25 t-inv F
 -0.307692  0.153846  0.000000    0.00591716  26 t-inv F
 -0.230769  0.153846  0.000000    0.00591716  27 t-inv F
  0.230769  0.230769  0.000000    0.00591716  28 t-inv F
  0.307692  0.230769  0.000000    0.00591716  29 t-inv F
  0.384615  0.230769  0.000000    0.00591716  30 t-inv F
  0.461538  0.230769  0.000000    0.00591716  31 t-inv F
 -0.461538  0.230769  0.000000    0.00591716  32 t-inv F
 -0.384615  0.230769  0.000000    0.00591716  33 t-inv F
 -0.307692  0.230769  0.000000    0.00591716  34 t-inv F
  0.307692  0.307692  0.000000    0.00591716  35 t-inv F
  0.384615  0.307692  0.000000    0.00591716  36 t-inv F
  0.461538  0.307692  0.000000    0.00591716  37 t-inv F
 -0.461538  0.307692  0.000000    0.00591716  38 t-inv F
 -0.384615  0.307692  0.000000    0.00591716  39 t-inv F
  0.384615  0.384615  0.000000    0.00591716  40 t-inv F
  0.461538  0.384615  0.000000    0.00591716  41 t-inv F
 -0.461538  0.384615  0.000000    0.00591716  42 t-inv F
  0.461538  0.461538  0.000000    0.00591716  43 t-inv F
 -0.076923 -0.000000 -0.000000    0.00591716   2 t-inv F
 -0.000000  0.076923  0.000000    0.00591716   2 t-inv F
  0.000000 -0.076923 -0.000000    0.00591716   2 t-inv F
 -0.153846 -0.000000 -0.000000    0.00591716   3 t-inv F
 -0.000000  0.153846  0.000000    0.00591716   3 t-inv F
  0.000000 -0.153846 -0.000000    0.00591716   3 t-inv F
 -0.230769 -0.000000 -0.000000    0.00591716   4 t-inv F
 -0.000000  0.230769  0.000000    0.00591716   4 t-inv F
[...]
 k-point 35 :   0.3077 0.3077 0.0000  plane waves:   22436
 k-point 36 :   0.3846 0.3077 0.0000  plane waves:   22424
 k-point 37 :   0.4615 0.3077 0.0000  plane waves:   22450
 k-point 38 :  -0.4615 0.3077 0.0000  plane waves:   22450
 k-point 39 :  -0.3846 0.3077 0.0000  plane waves:   22424
 k-point 40 :   0.3846 0.3846 0.0000  plane waves:   22460
 k-point 41 :   0.4615 0.3846 0.0000  plane waves:   22456
 k-point 42 :  -0.4615 0.3846 0.0000  plane waves:   22456
 k-point 43 :   0.4615 0.4615 0.0000  plane waves:   22504

 maximum and minimum number of plane-waves per node :     22504    22222

 maximum number of plane-waves:     22504
 maximum index in each direction:
   IXMAX=    7   IYMAX=    7   IZMAX=   52
   IXMIN=   -7   IYMIN=   -7   IZMIN=  -52

 NGX is ok and might be reduce to  30
 NGY is ok and might be reduce to  30
 NGZ is ok and might be reduce to 210

 serial   3D FFT for wavefunctions
 parallel 3D FFT for charge:
    minimum data exchange during FFTs selected (reduces bandwidth)

 Broyden mixing: mesh for mixing (old mesh)
   NGX = 15   NGY = 15   NGZ =105
  (NGX  = 60   NGY  = 60   NGZ  =420)
  gives a total of  23625 points

 charge density for first step will be calculated from the start-wavefunctions

 Maximum index for augmentation-charges         1734 (set IRDMAX)

 initial charge from wavefunction
 First call to EWALD:  gamma=   0.255
 Maximum number of real-space cells 5x 5x 1
 Maximum number of reciprocal cells 2x 2x 9

 FEWALD executed in parallel

----------------------------------------- Iteration    1(   1)  ---------------------------------------

atom =   1  type =  1  l = 2

 onsite density matrix

spin component  1

  0.6078  0.0000 -0.0000 -0.0000 -0.0000      0.0000 -0.0000  0.0000 -0.0000  0.0058
  0.0000  0.6424  0.0000 -0.0000 -0.0000      0.0000  0.0000  0.0000  0.0060 -0.0000
 -0.0000  0.0000  0.7136 -0.0000 -0.0000     -0.0000 -0.0000 -0.0000  0.0000  0.0000
 -0.0000 -0.0000 -0.0000  0.6424  0.0000      0.0000 -0.0060 -0.0000  0.0000  0.0000
 -0.0000 -0.0000 -0.0000  0.0000  0.7650     -0.0058  0.0000 -0.0000 -0.0000  0.0000

[...]

 occupancies and eigenvectors

  o =  0.2264  v =  0.0000  0.0038 -0.0000 -0.0086  0.0000  0.0146  0.0000  0.0000 -0.0000  0.9141      0.0000 -0.0086 -0.0000 -0.0038 -0.0000 -0.0330  0.0000  0.0000 -0.0000  0.4038
  o =  0.3181  v = -0.0288  0.0000 -0.0000 -0.0000 -0.0000 -0.0000 -0.7068  0.0000  0.0001  0.0000     -0.0000  0.0000  0.0000 -0.0000 -0.0112  0.0000 -0.0001  0.0000 -0.7068  0.0000
  o =  0.3298  v = -0.0000 -0.0000  0.0007 -0.0000  0.0000  0.0000 -0.7066 -0.0000 -0.0144  0.0000      0.0000 -0.0000 -0.0332 -0.0000 -0.0000  0.0000 -0.0144 -0.0000  0.7066  0.0000
  o =  0.4645  v =  0.0000  0.0433  0.0000  0.0143  0.0000 -0.0000 -0.0000  0.3131  0.0000  0.0000      0.0000 -0.0143  0.0000  0.0433 -0.0000  0.0000 -0.0000  0.9475  0.0000 -0.0000
  o =  0.5438  v =  0.0000  0.0389  0.0000  0.0259 -0.0000 -0.8305 -0.0000  0.0000 -0.0000 -0.0195      0.0000  0.0259  0.0000 -0.0389  0.0000 -0.5520  0.0000  0.0000  0.0000  0.0293
  o =  0.6078  v = -0.9989 -0.0000  0.0000 -0.0000 -0.0000 -0.0000  0.0200 -0.0000 -0.0000 -0.0000      0.0000 -0.0000  0.0000 -0.0000  0.0381 -0.0000  0.0000  0.0000  0.0200 -0.0000
  o =  0.6368  v = -0.0000 -0.0431 -0.0000  0.7042  0.0000 -0.0040 -0.0000 -0.0000 -0.0000  0.0156      0.0000  0.7042 -0.0000  0.0431  0.0000  0.0654 -0.0000 -0.0000  0.0000  0.0010
  o =  0.6492  v =  0.0000 -0.6848 -0.0000  0.1701 -0.0000 -0.0000  0.0000 -0.0156  0.0000  0.0000      0.0000 -0.1701  0.0000 -0.6848  0.0000  0.0000  0.0000  0.0626 -0.0000  0.0000
  o =  0.7141  v =  0.0000  0.0000  0.7104  0.0000 -0.0000  0.0000 -0.0165 -0.0000  0.0167 -0.0000      0.0000 -0.0000  0.7031  0.0000  0.0000  0.0000  0.0167 -0.0000  0.0165 -0.0000
  o =  0.7653  v = -0.0378 -0.0000  0.0000 -0.0000  0.0000 -0.0000  0.0087  0.0000 -0.0000 -0.0000      0.0000 -0.0000  0.0000 -0.0000 -0.9992 -0.0000  0.0000  0.0000  0.0087  0.0000
atom =   2  type =  1  l = 2

 onsite density matrix

[...]

spin component  4

  0.5438 -0.0000 -0.0000 -0.0000  0.0000     -0.0000 -0.0000  0.0000 -0.0000 -0.0116
 -0.0000  0.3244  0.0000  0.0000 -0.0000      0.0000  0.0000 -0.0000 -0.0059  0.0000
 -0.0000  0.0000  0.4652  0.0000 -0.0000     -0.0000  0.0000  0.0000  0.0000 -0.0000
 -0.0000  0.0000  0.0000  0.3244 -0.0000      0.0000  0.0059 -0.0000  0.0000  0.0000
  0.0000 -0.0000 -0.0000 -0.0000  0.2269      0.0116 -0.0000  0.0000 -0.0000 -0.0000

 occupancies and eigenvectors

  o =  0.2264  v = -0.0000  0.0017 -0.0000  0.0092  0.0000  0.0067  0.0000  0.0000 -0.0000 -0.9820      0.0000  0.0092  0.0000 -0.0017  0.0000  0.0355 -0.0000 -0.0000 -0.0000  0.1847
  o =  0.3181  v = -0.0288 -0.0000 -0.0000  0.0000 -0.0000 -0.0000 -0.7068  0.0000  0.0001 -0.0000      0.0000 -0.0000  0.0000 -0.0000 -0.0112  0.0000 -0.0001 -0.0000 -0.7068  0.0000
  o =  0.3298  v =  0.0000 -0.0000  0.0101 -0.0000  0.0000 -0.0000  0.6731  0.0000 -0.2155  0.0000      0.0000 -0.0000  0.0317 -0.0000 -0.0000 -0.0000 -0.2155 -0.0000 -0.6731  0.0000
  o =  0.4645  v =  0.0000  0.0403 -0.0000 -0.0214 -0.0000  0.0000  0.0000 -0.4668 -0.0000 -0.0000      0.0000  0.0214 -0.0000  0.0403 -0.0000  0.0000 -0.0000  0.8820 -0.0000 -0.0000
  o =  0.5438  v =  0.0000 -0.0455 -0.0000  0.0105 -0.0000  0.9719  0.0000  0.0000 -0.0000 -0.0079      0.0000  0.0105 -0.0000  0.0455  0.0000 -0.2232 -0.0000 -0.0000 -0.0000 -0.0343
  o =  0.6078  v =  0.9989 -0.0000  0.0000  0.0000  0.0000 -0.0000 -0.0200 -0.0000  0.0000 -0.0000      0.0000 -0.0000  0.0000 -0.0000 -0.0381 -0.0000 -0.0000  0.0000 -0.0200  0.0000
  o =  0.6368  v = -0.0000 -0.3976  0.0000 -0.5828 -0.0000 -0.0369 -0.0000  0.0000 -0.0000 -0.0129      0.0000 -0.5828  0.0000  0.3976  0.0000 -0.0542  0.0000 -0.0000  0.0000  0.0088
  o =  0.6492  v = -0.0000 -0.6881 -0.0000  0.1565 -0.0000 -0.0000 -0.0000 -0.0143 -0.0000 -0.0000      0.0000 -0.1565 -0.0000 -0.6881  0.0000 -0.0000  0.0000  0.0629  0.0000  0.0000
  o =  0.7141  v =  0.0000 -0.0000 -0.9351 -0.0000  0.0000 -0.0000  0.0083  0.0000 -0.0220  0.0000      0.0000 -0.0000 -0.3529  0.0000 -0.0000  0.0000 -0.0220 -0.0000 -0.0083  0.0000
  o =  0.7653  v = -0.0378 -0.0000  0.0000  0.0000  0.0000 -0.0000  0.0087  0.0000 -0.0000 -0.0000      0.0000  0.0000 -0.0000  0.0000 -0.9992  0.0000  0.0000  0.0000  0.0087  0.0000

 eigenvalue-minimisations  :     0
 total energy-change (2. order) :-0.2637604E+02  ( 0.0000000E+00)
 number of electron      38.0000022 magnetization      -0.0000000     -0.0000000      2.7248536
 augmentation part       12.3567721 magnetization      -0.0000000     -0.0000000      2.1691470

 Free energy of the ion-electron system (eV)
  alpha Z        PSCENC =        34.15002945
  Ewald energy   TEWEN  =     13986.46071773
  -Hartree energ DENC   =    -17891.81912254
  -exchange      EXHF   =         0.00000000
  -V(xc)+E(xc)   XCENC  =       135.51764694
  PAW double counting   =      4492.42362311    -4570.36940648
  entropy T*S    EENTRO =        -0.00013977
  eigenvalues    EBANDS =      -777.51866951
  atomic energy  EATOM  =      4564.77927765
  Solvation  Ediel_sol  =         0.00000000
  free energy    TOTEN  =       -26.37604341 eV

  energy without entropy =      -26.37590364  energy(sigma->0) =      -26.37597353

 average (electrostatic) potential at core
  the test charge radii are     0.9577  1.0808
  (the norm of the test charge is              1.0000)
       1 -76.9171       2 -76.9171       3 -61.1941       4 -61.1941

 E-fermi :  -2.2189     XC(G=0):  -2.7477     alpha+bet : -2.5062

 k-point     1 :       0.0000    0.0000    0.0000
  band No.  band energies     occupation
      1     -51.6620      1.00000
      2     -51.4054      1.00000
      3     -51.1804      1.00000
      4     -51.1564      1.00000
      5     -50.6921      1.00000
      6     -50.3915      1.00000
      7     -49.6276      1.00000
      8     -49.3779      1.00000
      9     -49.2192      1.00000
     10     -49.1631      1.00000
     11     -49.0796      1.00000
     12     -48.7586      1.00000
     13     -16.7636      1.00000
     14     -16.7026      1.00000
     15     -16.0837      1.00000
     16     -16.0003      1.00000
     17      -8.0156      1.00000
     18      -7.8416      1.00000
     19      -7.4902      1.00000
     20      -6.8939      1.00000
     21      -6.4793      1.00000
     22      -6.3965      1.00000
     23      -5.9466      1.00000
     24      -5.8053      1.00000
     25      -5.3478      1.00000
     26      -4.9118      1.00000
     27      -4.7528      1.00000
     28      -4.7253      1.00000
     29      -4.5371      1.00000
     30      -4.5328      1.00000
     31      -3.6993      1.00000
     32      -3.2408      1.00000
     33      -2.9350      1.00000
     34      -2.7835      1.00000
     35      -2.4700      1.00000
     36      -2.3225      1.00000
     37      -2.2290      0.92287
     38      -2.1480      0.00000
     39      -2.0675      0.00000
     40      -0.9809      0.00000
     41      -0.9395      0.00000
     42      -0.8785      0.00000
     43      -0.4648      0.00000
     44      -0.3080      0.00000
     45      -0.2918      0.00000
     46       0.1231      0.00000
     47       0.2438      0.00000
     48       0.3765      0.00000
     49       0.6182      0.00000
     50       0.6508      0.00000
     51       1.7517      0.00000
     52       1.8080      0.00000
     53       2.1244      0.00000
     54       2.1620      0.00000
     55       2.5498      0.00000
     56       2.5794      0.00000
     57       2.7037      0.00000
     58       2.7504      0.00000
     59       3.2812      0.00000
     60       3.5256      0.00000
[...]
     66       4.6146      0.00000
     67       5.0069      0.00000
     68       5.4531      0.00000
     69       5.4573      0.00000
     70       5.4863      0.00000
     71       5.7511      0.00000
     72       5.7751      0.00000
     73       5.9058      0.00000
     74       5.9349      0.00000
     75       6.4702      0.00000
     76       6.5119      0.00000
     77       7.2229      0.00000
     78       7.3865      0.00000
     79       7.7559      0.00000
     80       7.7933      0.00000

[...]

 k-point    43 :       0.4615    0.4615    0.0000
  band No.  band energies     occupation
      1     -51.5706      1.00000
      2     -51.5669      1.00000
      3     -51.1674      1.00000
      4     -51.1670      1.00000
      5     -50.5245      1.00000
      6     -50.5201      1.00000
      7     -49.5646      1.00000
      8     -49.5610      1.00000
      9     -49.1889      1.00000
     10     -49.1881      1.00000
     11     -48.8778      1.00000
     12     -48.8732      1.00000
     13     -15.5120      1.00000
     14     -15.5005      1.00000
     15     -15.4305      1.00000
     16     -15.4188      1.00000
     17      -7.8605      1.00000
     18      -7.8291      1.00000
     19      -7.6977      1.00000
     20      -7.6719      1.00000
     21      -6.1647      1.00000
     22      -6.1570      1.00000
     23      -6.1237      1.00000
     24      -6.1022      1.00000
     25      -5.8075      1.00000
     26      -5.7640      1.00000
     27      -5.6097      1.00000
     28      -5.5583      1.00000
     29      -4.6541      1.00000
     30      -4.6454      1.00000
     31      -4.2929      1.00000
     32      -4.1965      1.00000
     33      -3.7248      1.00000
     34      -3.7032      1.00000
     35      -3.5120      1.00000
     36      -3.4867      1.00000
     37      -3.2832      1.00000
     38      -3.1493      1.00000
     39      -2.7021      1.00000
     40      -2.6811      1.00000
     41      -1.5185      0.00000
     42      -1.4809      0.00000
     43      -1.1718      0.00000
     44      -1.1662      0.00000
     45      -1.0477      0.00000
     46      -1.0405      0.00000
     47       0.0082      0.00000
     48       0.0265      0.00000
     49       2.7787      0.00000
     50       2.8150      0.00000
     51       3.1813      0.00000
     52       3.2352      0.00000
     53       4.1916      0.00000
     54       4.2097      0.00000
     55       4.4977      0.00000
     56       4.5182      0.00000
     57       5.1006      0.00000
     58       5.1183      0.00000
     59       5.7635      0.00000
     60       5.7774      0.00000
[...]
     66       6.9754      0.00000
     67       7.3550      0.00000
     68       7.3925      0.00000
     69       7.4451      0.00000
     70       7.4491      0.00000
     71       7.6635      0.00000
     72       7.7003      0.00000
     73       7.8577      0.00000
     74       7.8653      0.00000
     75       8.1752      0.00000
     76       8.2199      0.00000
     77       8.2687      0.00000
     78       8.2760      0.00000
     79       8.3312      0.00000
     80       8.3466      0.00000

 soft charge-density along one line, spin component           1
         0         1         2         3         4         5         6         7         8         9
 total charge-density along one line

[...]

 soft charge-density along one line, spin component           4
         0         1         2         3         4         5         6         7         8         9
 total charge-density along one line

------------------------ aborting loop because EDIFF is reached ----------------------------------------

 total charge

# of ion     s       p       d       tot
  1        0.320   6.330   5.223  11.873
  2        0.320   6.330   5.223  11.873
  3        1.467   2.337   0.074   3.878
  4        1.467   2.337   0.074   3.878
tot        3.574  17.334  10.594  31.501

 magnetization (x)

[...]

 magnetization (y)

[...]

 magnetization (z)

[...]

  FREE ENERGIE OF THE ION-ELECTRON SYSTEM (eV)
  free  energy   TOTEN  =       -26.37604341 eV

  energy  without entropy=      -26.37590364  energy(sigma->0) =      -26.37597353

 Spin-Orbit-Coupling matrix elements

 Ion:    1  E_soc:     -0.0295389
 l=   1
     0.0000000    -0.0036664    -0.0036604
    -0.0036664     0.0000000    -0.0036664
    -0.0036604    -0.0036664     0.0000000
 l=   2
     0.0000000    -0.0002669     0.0000000    -0.0002669    -0.0009276
    -0.0002669     0.0000000    -0.0008093    -0.0002996    -0.0001983
     0.0000000    -0.0008093     0.0000000    -0.0008093     0.0000000
    -0.0002669    -0.0002996    -0.0008093     0.0000000    -0.0001983
    -0.0009276    -0.0001983     0.0000000    -0.0001983     0.0000000
 l=   3
     0.0000000     0.0000000     0.0000000     0.0000000     0.0000000     0.0000000     0.0000000
     0.0000000     0.0000000     0.0000000     0.0000000     0.0000000     0.0000000     0.0000000
     0.0000000     0.0000000     0.0000000     0.0000000     0.0000000     0.0000000     0.0000000
     0.0000000     0.0000000     0.0000000     0.0000000     0.0000000     0.0000000     0.0000000
     0.0000000     0.0000000     0.0000000     0.0000000     0.0000000     0.0000000     0.0000000
     0.0000000     0.0000000     0.0000000     0.0000000     0.0000000     0.0000000     0.0000000
     0.0000000     0.0000000     0.0000000     0.0000000     0.0000000     0.0000000     0.0000000

[...]

 Ion:    4  E_soc:     -0.0395098
 l=   1
     0.0000000    -0.0066404    -0.0064705
    -0.0066404     0.0000000    -0.0066404
    -0.0064705    -0.0066404     0.0000000
 l=   2
     0.0000000    -0.0000008     0.0000000    -0.0000008    -0.0000031
    -0.0000008     0.0000000    -0.0000049     0.0000066     0.0000021
     0.0000000    -0.0000049     0.0000000    -0.0000049     0.0000000
    -0.0000008     0.0000066    -0.0000049     0.0000000     0.0000021
    -0.0000031     0.0000021     0.0000000     0.0000021     0.0000000
 l=   3
     0.0000000     0.0000000     0.0000000     0.0000000     0.0000000     0.0000000     0.0000000
     0.0000000     0.0000000     0.0000000     0.0000000     0.0000000     0.0000000     0.0000000
     0.0000000     0.0000000     0.0000000     0.0000000     0.0000000     0.0000000     0.0000000
     0.0000000     0.0000000     0.0000000     0.0000000     0.0000000     0.0000000     0.0000000
     0.0000000     0.0000000     0.0000000     0.0000000     0.0000000     0.0000000     0.0000000
     0.0000000     0.0000000     0.0000000     0.0000000     0.0000000     0.0000000     0.0000000
     0.0000000     0.0000000     0.0000000     0.0000000     0.0000000     0.0000000     0.0000000

 total charge

[...]

 magnetization (x)

[...]

 magnetization (y)

[...]

 magnetization (z)

# of ion     s       p       d       tot
  1        0.010   0.012   1.485   1.506
  2        0.010   0.012   1.485   1.506
  3       -0.003  -0.122   0.006  -0.119
  4       -0.003  -0.122   0.006  -0.119
tot        0.014  -0.221   2.981   2.774