 vasp.5.4.1 24Jun15 (build Dec 08 2016 12:24:04) complex

 executed on           IFC91_ompi date 2019.07.29  12:55:10

 INCAR:
 POTCAR:    PAW_PBE Bi 08Apr2002
 POTCAR:    PAW_PBE Pt 04Feb2005

 POTCAR:    PAW_PBE Bi 08Apr2002
   VRHFIN =Bi:

   TITEL  = PAW_PBE Bi 08Apr2002
   POMASS =  208.980; ZVAL   =    5.000    mass and valenz
   ENMAX  =  105.037; ENMIN  =   78.777 eV

 POTCAR:    PAW_PBE Pt 04Feb2005
   VRHFIN =Pt: s1d9

   TITEL  = PAW_PBE Pt 04Feb2005
   POMASS =  195.080; ZVAL   =   10.000    mass and valenz
   ENMAX  =  230.283; ENMIN  =  172.712 eV

  PAW_PBE Bi 08Apr2002                  :
  PAW_PBE Pt 04Feb2005                  :

 POSCAR: Surf-mp-569581
  positions in direct lattice
 exchange correlation table for  LEXCH =       42
   RHO(1)=    0.500       N(1)  =     2000
   RHO(2)=  100.500       N(2)  =     4000

 ion  position               nearest neighbor table
   1  0.333  0.667  0.125-   3 2.80   3 2.80   3 2.80   2 3.73   2 3.73   2 3.73
   2  0.667  0.333  0.000-   3 2.80   3 2.80   3 2.80   1 3.73   1 3.73   1 3.73
   3  0.000  0.000  0.063-   1 2.80   2 2.80   1 2.80   2 2.80   1 2.80   2 2.80

  LATTYP: Found a hexagonal cell.
 ALAT       =     4.1598985671
 C/A-ratio  =     5.4953332710

  Lattice vectors:

 A1 = (   3.6025780000,  -2.0799490000,   0.0000000000)
 A2 = (   0.0000000000,   4.1598980000,   0.0000000000)
 A3 = (   0.0000000000,   0.0000000000,  22.8600290000)

Analysis of symmetry for initial positions (statically):
 Subroutine PRICEL returns:
 Original cell was already a primitive cell.

 Routine SETGRP: Setting up the symmetry group for a
 hexagonal supercell.

 Subroutine GETGRP returns: Found 12 space group operations
 (whereof  6 operations were pure point group operations)
 out of a pool of 24 trial point group operations.

The static configuration has the point symmetry C_3v.
 The point group associated with its full space group is D_3d.

Analysis of symmetry for dynamics (positions and initial velocities):
 Subroutine PRICEL returns:
 Original cell was already a primitive cell.

 Routine SETGRP: Setting up the symmetry group for a
 hexagonal supercell.

 Subroutine GETGRP returns: Found 12 space group operations
 (whereof  6 operations were pure point group operations)
 out of a pool of 24 trial point group operations.

The dynamic configuration has the point symmetry C_3v.
 The point group associated with its full space group is D_3d.

Analysis of magnetic symmetry:
 Subroutine PRICEL returns:
 Original cell was already a primitive cell.

 Subroutine MAGSYM returns: Found 12 space group operations
 (whereof  6 operations were pure point group operations)
 out of a pool of 12 trial space group operations
 (whereof  6 operations were pure point group operations)
 and found also     1 'primitive' translations

The magnetic configuration has the point symmetry C_3v.
 The point group associated with its full space group is D_3d.

 KPOINTS: Automatic kpoint scheme

Automatic generation of k-mesh.
Space group operators:
 irot       det(A)        alpha          n_x          n_y          n_z        tau_x        tau_y        tau_z
    1     1.000000     0.000000     1.000000     0.000000     0.000000     0.000000     0.000000     0.000000
    2     1.000000   120.000000     0.000000     0.000000    -1.000000     0.000000     0.000000     0.000000
    3     1.000000   120.000000     0.000000     0.000000     1.000000     0.000000     0.000000     0.000000
    4    -1.000000   180.000000     0.866025    -0.500000     0.000000     0.000000     0.000000     0.000000
    5    -1.000000   180.000000     0.000000     1.000000     0.000000     0.000000     0.000000     0.000000
    6    -1.000000   180.000000     0.866025     0.500000     0.000000     0.000000     0.000000     0.000000
    7    -1.000000     0.000000     1.000000     0.000000     0.000000     0.000000     0.000000     0.125110
    8    -1.000000   120.000000     0.000000     0.000000    -1.000000     0.000000     0.000000     0.125110
    9    -1.000000   120.000000     0.000000     0.000000     1.000000     0.000000     0.000000     0.125110
   10     1.000000   180.000000     0.866025    -0.500000     0.000000     0.000000     0.000000     0.125110
   11     1.000000   180.000000     0.000000     1.000000     0.000000     0.000000     0.000000     0.125110
   12     1.000000   180.000000     0.866025     0.500000     0.000000     0.000000     0.000000     0.125110

 Subroutine IBZKPT returns following result:

 Found     27 irreducible k-points:

 Following reciprocal coordinates:
            Coordinates               Weight
  0.000000  0.000000  0.000000      1.000000
  0.066667  0.000000  0.000000      6.000000
  0.133333  0.000000  0.000000      6.000000
  0.200000  0.000000  0.000000      6.000000
  0.266667  0.000000  0.000000      6.000000
  0.333333  0.000000  0.000000      6.000000
  0.400000  0.000000  0.000000      6.000000
  0.466667  0.000000  0.000000      6.000000
  0.066667  0.066667  0.000000      6.000000
  0.133333  0.066667  0.000000     12.000000
  0.200000  0.066667  0.000000     12.000000
  0.266667  0.066667  0.000000     12.000000
  0.333333  0.066667  0.000000     12.000000
  0.400000  0.066667  0.000000     12.000000
  0.466667  0.066667  0.000000      6.000000
  0.133333  0.133333  0.000000      6.000000
  0.200000  0.133333  0.000000     12.000000
  0.266667  0.133333  0.000000     12.000000
  0.333333  0.133333  0.000000     12.000000
  0.400000  0.133333  0.000000     12.000000
  0.200000  0.200000  0.000000      6.000000
  0.266667  0.200000  0.000000     12.000000
  0.333333  0.200000  0.000000     12.000000
  0.400000  0.200000  0.000000      6.000000
  0.266667  0.266667  0.000000      6.000000
  0.333333  0.266667  0.000000     12.000000
  0.333333  0.333333  0.000000      2.000000

 Following cartesian coordinates:
            Coordinates               Weight
  0.000000  0.000000  0.000000      1.000000
  0.018505  0.000000  0.000000      6.000000
  0.037011  0.000000  0.000000      6.000000
  0.055516  0.000000  0.000000      6.000000
  0.074021  0.000000  0.000000      6.000000
  0.092526  0.000000  0.000000      6.000000
  0.111032  0.000000  0.000000      6.000000
  0.129537  0.000000  0.000000      6.000000
  0.027758  0.016026  0.000000      6.000000
  0.046263  0.016026  0.000000     12.000000
  0.064768  0.016026  0.000000     12.000000
  0.083274  0.016026  0.000000     12.000000
  0.101779  0.016026  0.000000     12.000000
  0.120284  0.016026  0.000000     12.000000
  0.138790  0.016026  0.000000      6.000000
  0.055516  0.032052  0.000000      6.000000
  0.074021  0.032052  0.000000     12.000000
  0.092526  0.032052  0.000000     12.000000
  0.111032  0.032052  0.000000     12.000000
  0.129537  0.032052  0.000000     12.000000
  0.083274  0.048078  0.000000      6.000000
  0.101779  0.048078  0.000000     12.000000
  0.120284  0.048078  0.000000     12.000000
  0.138790  0.048078  0.000000      6.000000
  0.111032  0.064104  0.000000      6.000000
  0.129537  0.064104  0.000000     12.000000
  0.138790  0.080130  0.000000      2.000000

 I would recommend the setting:
   dimension x,y,z NGX =    30 NGY =   30 NGZ =  167
 SYSTEM =  unknown system
 POSCAR =  Surf-mp-569581

 Startparameter for this run:
   NWRITE =      2    write-flag & timer
   PREC   = accura    normal or accurate (medium, high low for compatibility)
   ISTART =      0    job   : 0-new  1-cont  2-samecut
   ICHARG =      2    charge: 1-file 2-atom 10-const
   ISPIN  =      2    spin polarized calculation?
   LNONCOLLINEAR =      F non collinear calculations
   LSORBIT =      F    spin-orbit coupling
   INIWAV =      1    electr: 0-lowe 1-rand  2-diag
   LASPH  =      F    aspherical Exc in radial PAW
   METAGGA=      F    non-selfconsistent MetaGGA calc.

 Electronic Relaxation 1
   ENCUT  =  500.0 eV  36.75 Ry    6.06 a.u.   7.58  7.58 41.68*2*pi/ulx,y,z
   ENINI  =  500.0     initial cutoff
   ENAUG  =  359.0 eV  augmentation charge cutoff
   NELM   =    500;   NELMIN=  2; NELMDL= -5     # of ELM steps
   EDIFF  = 0.1E-06   stopping-criterion for ELM
   LREAL  =      F    real-space projection
   NLSPLINE    = F    spline interpolate recip. space projectors
   LCOMPAT=      F    compatible to vasp.4.4
   GGA_COMPAT  = T    GGA compatible to vasp.4.4-vasp.4.6
   LMAXPAW     = -100 max onsite density
   LMAXMIX     =    2 max onsite mixed and CHGCAR
   VOSKOWN=      0    Vosko Wilk Nusair interpolation
   ROPT   =    0.00000   0.00000
 Ionic relaxation
   EDIFFG = -.1E-02   stopping-criterion for IOM
   NSW    =    500    number of steps for IOM
   NBLOCK =      1;   KBLOCK =    500    inner block; outer block
   IBRION =      2    ionic relax: 0-MD 1-quasi-New 2-CG
   NFREE  =      1    steps in history (QN), initial steepest desc. (CG)
   ISIF   =      3    stress and relaxation
   IWAVPR =     11    prediction:  0-non 1-charg 2-wave 3-comb
   ISYM   =      2    0-nonsym 1-usesym 2-fastsym
   LCORR  =      T    Harris-Foulkes like correction to forces

   POTIM  = 0.5000    time-step for ionic-motion
   TEIN   =    0.0    initial temperature
   TEBEG  =    0.0;   TEEND  =   0.0 temperature during run
   SMASS  =  -3.00    Nose mass-parameter (am)
   estimated Nose-frequenzy (Omega)   =  0.10E-29 period in steps =****** mass=  -0.395E-27a.u.
   SCALEE = 1.0000    scale energy and forces
   NPACO  =    256;   APACO  = 16.0  distance and # of slots for P.C.
   PSTRESS=    0.0 pullay stress

  Mass of Ions in am
   POMASS = 208.98195.08
  Ionic Valenz
   ZVAL   =   5.00 10.00
  Atomic Wigner-Seitz radii
  virtual crystal weights
   VCA    =   1.00  1.00
   NELECT =      20.0000    total number of electrons
   NUPDOWN=      -1.0000    fix difference up-down

 DOS related values:
   EMIN   =  10.00;   EMAX   =-10.00  energy-range for DOS
   EFERMI =   0.00
   ISMEAR =     0;   SIGMA  =   0.20  broadening in eV -4-tet -1-fermi 0-gaus

 Electronic relaxation 2 (details)
   IALGO  =     38    algorithm
   LDIAG  =      T    sub-space diagonalisation (order eigenvalues)
   LSUBROT=      F    optimize rotation matrix (better conditioning)
   TURBO    =      0    0=normal 1=particle mesh
   IRESTART =      0    0=no restart 2=restart with 2 vectors
   NREBOOT  =      0    no. of reboots
   NMIN     =      0    reboot dimension
   EREF     =   0.00    reference energy to select bands
   IMIX   =      4    mixing-type and parameters
     AMIX     =   0.40;   BMIX     =  1.00
     AMIX_MAG =   1.60;   BMIX_MAG =  1.00
     AMIN     =   0.10
     WC   =   100.;   INIMIX=   1;  MIXPRE=   1;  MAXMIX= -45

 Intra band minimization:
   WEIMIN = 0.0010     energy-eigenvalue tresh-hold
   EBREAK =  0.16E-08  absolut break condition
   DEPER  =   0.30     relativ break condition

   TIME   =   0.40     timestep for ELM

  volume/ion in A,a.u.               =     114.20       770.63
  Fermi-wavevector in a.u.,A,eV,Ry     =   0.635078  1.200124  5.487561  0.403324
  Thomas-Fermi vector in A             =   1.699290

 Write flags
   LWAVE  =      F    write WAVECAR
   LCHARG =      F    write CHGCAR
   LVTOT  =      F    write LOCPOT, total local potential
[...]
 NGY is ok and might be reduce to  30
 NGZ is ok and might be reduce to 166
 aliasing errors are usually negligible using standard VASP settings
 and one can safely disregard these warnings

 parallel 3D FFT for wavefunctions:
    minimum data exchange during FFTs selected (reduces bandwidth)
 parallel 3D FFT for charge:
    minimum data exchange during FFTs selected (reduces bandwidth)

 Broyden mixing: mesh for mixing (old mesh)
   NGX = 15   NGY = 15   NGZ = 83
  (NGX  = 60   NGY  = 60   NGZ  =336)
  gives a total of  18675 points

 initial charge density was supplied:
 charge density of overlapping atoms calculated
 number of electron      20.0000000 magnetization       3.0000000
 keeping initial charge density in first step

 Maximum index for augmentation-charges         1510 (set IRDMAX)

 First call to EWALD:  gamma=   0.253
 Maximum number of real-space cells 5x 5x 1
 Maximum number of reciprocal cells 2x 2x 8

 FEWALD executed in parallel

----------------------------------------- Iteration    1(   1)  ---------------------------------------

vdW kernel read from vdw_kernel.bindat
  0.0000  0.2424  0.5071  0.7962  1.1119  1.4567  1.8333  2.2446  2.6937  3.1842
  3.7199  4.3049  4.9438  5.6415  6.4036  7.2358  8.1446  9.1372 10.2212 11.4050
 12.6979 14.1099 15.6519 17.3360 19.1751 21.1837 23.3773 25.7729 28.3892 31.2465
 34.3669 37.7748 41.4965 45.5611 50.0000

 eigenvalue-minimisations  :  1728
 total energy-change (2. order) : 0.1286365E+03  (-0.5488653E+03)
 number of electron      20.0000000 magnetization       3.0000000
 augmentation part       20.0000000 magnetization       3.0000000

 Free energy of the ion-electron system (eV)
  alpha Z        PSCENC =         6.95023140
  Ewald energy   TEWEN  =      2243.80739507
  -Hartree energ DENC   =     -3208.94631914
  -exchange      EXHF   =         0.00000000
  -V(xc)+E(xc)   XCENC  =      -220.99337090
  PAW double counting   =      1186.30826540     -918.45702141
  entropy T*S    EENTRO =        -0.06673102
  eigenvalues    EBANDS =         1.42065536
  atomic energy  EATOM  =      1038.61338829
  Solvation  Ediel_sol  =         0.00000000
  free energy    TOTEN  =       128.63649305 eV

  energy without entropy =      128.70322407  energy(sigma->0) =      128.66985856

[...]

 eigenvalue-minimisations  :  2728
 total energy-change (2. order) :-0.1214244E+03  (-0.1126930E+03)
 number of electron      20.0000000 magnetization       3.0000000
 augmentation part       20.0000000 magnetization       3.0000000

[...]

 Broyden mixing:
  rms(total) = 0.77543E+00    rms(broyden)= 0.77543E+00
  rms(prec ) = 0.79103E+00
  weight for this iteration     100.00

[...]

 eigenvalues of (default mixing * dielectric matrix)
  average eigenvalue GAMMA=   0.2949
  0.2949

[...]

 average (electrostatic) potential at core
  the test charge radii are     1.4024  1.2059
  (the norm of the test charge is              1.0000)
       1 -68.4952       2 -68.4952       3 -75.8268

 E-fermi :  -1.6124     XC(G=0):  -3.8896     alpha+bet : -2.7939

 spin component 1

 k-point     1 :       0.0000    0.0000    0.0000
  band No.  band energies     occupation
      1     -13.7713      1.00000
      2     -12.0073      1.00000
      3      -5.8061      1.00000
      4      -5.6054      1.00000
      5      -5.6054      1.00000
      6      -4.3384      1.00000
      7      -4.3384      1.00000
      8      -3.1091      1.00000
      9      -1.3590      0.03653
     10       0.0486      0.00000
     11       0.0486      0.00000
     12       1.1702      0.00000
     13       1.5687      0.00000
     14       1.7285      0.00000
     15       1.9618      0.00000
     16       1.9618      0.00000

[...]

 soft charge-density along one line, spin component           1
         0         1         2         3         4         5         6         7         8         9
 total charge-density along one line

[...]

------------------------ aborting loop because EDIFF is reached ----------------------------------------

 total charge

# of ion     s       p       d       tot
  1        1.721   1.870   0.097   3.687
  2        1.721   1.870   0.097   3.687
  3        0.721   0.479   8.167   9.367
tot        4.163   4.218   8.360  16.741

 magnetization (x)

[...]

  FORCE on cell =-STRESS in cart. coord.  units (eV):
  Direction    XX          YY          ZZ          XY          YZ          ZX
  Alpha Z     6.95023     6.95023     6.95023
  Ewald    2916.12948  2916.12997 -3588.45217    -0.00039    -0.00028     0.00021
  Hartree  3104.95676  3104.95667 -2990.55032     0.00008     0.00005    -0.00002
  E(xc)     -91.01037   -91.01036   -90.37666    -0.00000     0.00001    -0.00001
  Local   -6319.44029 -6319.44049  6277.72798     0.00021     0.00015    -0.00013
  n-local   166.95635   153.42855   158.46154     3.42755     1.58514     1.37760
  augment    -1.30047    -1.30050    -0.66634     0.00001     0.00001    -0.00000
  Kinetic   226.55921   219.58284   226.37609     1.36054     0.54208     1.61881
  Fock        0.00000     0.00000     0.00000     0.00000     0.00000     0.00000
  Total      -0.45109    -0.45109    -0.52965    -0.00000     0.00000    -0.00000
  in kB      -2.10962    -2.10962    -2.47700    -0.00000     0.00000    -0.00000

 VOLUME and BASIS-vectors are now :
  energy-cutoff  :      500.00
  volume of cell :      342.59
      direct lattice vectors                 reciprocal lattice vectors
     3.602578000 -2.079949000  0.000000000     0.277579000  0.000000000  0.000000000
     0.000000000  4.159898000  0.000000000     0.138789500  0.240390510  0.000000000
     0.000000000  0.000000000 22.860029000     0.000000000  0.000000000  0.043744476

[...]

 FORCES acting on ions
    electron-ion (+dipol)            ewald-force                    non-local-force                 convergence-correction
   0.217E-03 -.398E-03 -.312E+03   0.739E-04 -.987E-04 0.316E+03   0.000E+00 0.976E-18 -.446E+01   -.119E-10 0.238E-10 0.781E-04
   -.224E-03 0.410E-03 0.312E+03   -.739E-04 0.987E-04 -.316E+03   0.000E+00 0.976E-18 0.446E+01   0.119E-10 -.238E-10 -.781E-04
   -.449E-06 0.153E-05 0.748E-05   -.678E-14 -.439E-14 0.796E-11   0.000E+00 0.662E-23 0.000E+00   -.801E-14 -.747E-14 0.417E-12
   -.762E-05 0.134E-04 0.162E-04   -.133E-13 -.164E-14 0.000E+00   0.000E+00 0.195E-17 0.000E+00   -.841E-14 -.809E-14 -.189E-11

 POSITION                                       TOTAL-FORCE (eV/Angst)
      1.20086      2.07995      2.86002         0.000000     -0.000000     -0.180981
      2.40172     -0.00000      0.00000        -0.000000      0.000000      0.180981
      0.00000      0.00000      1.43001        -0.000000      0.000000     -0.000000
    total drift:                               -0.000008      0.000013      0.000016

  FREE ENERGIE OF THE ION-ELECTRON SYSTEM (eV)
  free  energy   TOTEN  =        -5.77655852 eV

  energy  without entropy=       -5.73843014  energy(sigma->0) =       -5.75749433

[...]

 d Force = 0.1078100E-02[-0.100E-02, 0.316E-02]  d Energy = 0.1861589E-02-0.783E-03
 d Force =-0.5564962E+01[-0.561E+01,-0.552E+01]  d Ewald  =-0.4841169E+02 0.428E+02

 Steepest descent step on ions:
 trial-energy change:   -0.001862  1 .order   -0.000673   -0.009705    0.008358
  (g-gl).g = 0.970E-02      g.g   = 0.970E-02  gl.gl    = 0.000E+00
 g(Force)  = 0.316E-02   g(Stress)= 0.654E-02 ortho     = 0.000E+00
 gamma     =   0.00000
 trial     =   1.00000
 opt step  =   0.62935  (harmonic =   0.53727) maximal distance =0.00549486
 next E    =    -5.779909   (d E  =  -0.00335)

[...]

 d Force = 0.7878731E-04[-0.215E-03, 0.372E-03]  d Energy = 0.1417878E-02-0.134E-02
 d Force = 0.2073320E+01[ 0.207E+01, 0.208E+01]  d Ewald  = 0.1808119E+02-0.160E+02

[...]

 d Force =-0.6444377E-04[-0.797E-04,-0.492E-04]  d Energy =-0.4837028E-04-0.161E-04
 d Force = 0.4738064E+00[ 0.473E+00, 0.474E+00]  d Ewald  = 0.4124688E+01-0.365E+01

[...]

 d Force = 0.2774641E-03[ 0.270E-03, 0.285E-03]  d Energy = 0.3971483E-03-0.120E-03
 d Force =-0.1689765E+01[-0.169E+01,-0.169E+01]  d Ewald  = 0.2189613E+01-0.388E+01

 Conjugate gradient step on ions:
 trial-energy change:   -0.000397  1 .order   -0.000357   -0.000366   -0.000348
  (g-gl).g = 0.366E-03      g.g   = 0.402E-03  gl.gl    = 0.970E-02
 g(Force)  = 0.278E-03   g(Stress)= 0.124E-03 ortho     = 0.359E-04
 gamma     =   0.03771
 trial     =   0.90887
 opt step  =   3.63546  (harmonic =  18.37480) maximal distance =0.01060755
 next E    =    -5.783494   (d E  =  -0.00370)

[...]

 d Force = 0.1076877E-02[ 0.800E-03, 0.135E-02]  d Energy = 0.1748953E-02-0.672E-03
 d Force =-0.1000956E+02[-0.995E+01,-0.101E+02]  d Ewald  = 0.1305832E+02-0.231E+02

[...]

 d Force = 0.3173166E-03[-0.966E-03, 0.160E-02]  d Energy = 0.1446826E-02-0.113E-02
 d Force =-0.1966173E+02[-0.194E+02,-0.199E+02]  d Ewald  = 0.2590587E+02-0.456E+02

[...]

 d Force = 0.1652605E-03[-0.539E-05, 0.336E-03]  d Energy =-0.1520324E-03 0.317E-03
 d Force = 0.6781041E+01[ 0.681E+01, 0.675E+01]  d Ewald  =-0.8974648E+01 0.158E+02

[...]

 d Force =-0.5261851E-06[-0.145E-05, 0.401E-06]  d Energy = 0.2450673E-04-0.250E-04
 d Force =-0.5069551E+00[-0.507E+00,-0.507E+00]  d Ewald  = 0.6694493E+00-0.118E+01

[...]

 d Force =-0.1833665E-07[-0.182E-07,-0.185E-07]  d Energy = 0.4608198E-05-0.463E-05
 d Force =-0.6449299E-02[-0.645E-02,-0.645E-02]  d Ewald  = 0.8518035E-02-0.150E-01

[...]

 d Force =-0.4517854E-04[-0.815E-04,-0.887E-05]  d Energy = 0.7697067E-04-0.122E-03
 d Force =-0.3139973E+01[-0.313E+01,-0.315E+01]  d Ewald  = 0.4151817E+01-0.729E+01

[...]

 d Force = 0.4520006E-04[ 0.921E-05, 0.812E-04]  d Energy =-0.8204849E-04 0.127E-03
 d Force = 0.3128535E+01[ 0.313E+01, 0.312E+01]  d Ewald  =-0.4136710E+01 0.727E+01

[...]

 d Force = 0.1192275E-07[ 0.119E-07, 0.120E-07]  d Energy = 0.1991936E-05-0.198E-05
 d Force = 0.4079000E-02[ 0.408E-02, 0.408E-02]  d Ewald  =-0.5387465E-02 0.947E-02

[...]

 d Force =-0.1260962E-05[-0.294E-05, 0.419E-06]  d Energy =-0.1303671E-04 0.118E-04
 d Force = 0.1441439E+00[ 0.144E+00, 0.144E+00]  d Ewald  = 0.1412637E+01-0.127E+01

 Conjugate gradient step on ions:
 trial-energy change:    0.000013  1 .order    0.000006   -0.000002    0.000014
  (g-gl).g =-0.207E-05      g.g   = 0.495E-06  gl.gl    = 0.402E-03
 g(Force)  = 0.772E-07   g(Stress)= 0.418E-06 ortho     = 0.692E-08
 gamma     =  -0.00516
 trial     =   4.02582
 opt step  =   0.50780  (harmonic =   0.50780) maximal distance =0.00002956
 next E    =    -5.784367   (d E  =  -0.00000)

 FEWALD executed in parallel

[...]

 eigenvalue-minimisations  :  1712
 total energy-change (2. order) :-0.1283042E-06  (-0.3202126E-07)
 number of electron      19.9999995 magnetization      -0.0000468
 augmentation part       -0.0751835 magnetization      -0.0000458

 Broyden mixing:
  rms(total) = 0.72177E-05    rms(broyden)= 0.72177E-05
  rms(prec ) = 0.74664E-05
  weight for this iteration     100.00

 eigenvalues of (default mixing * dielectric matrix)
  average eigenvalue GAMMA=   1.3548
  5.6741  4.3687  4.3687  2.8066  2.4283  2.0059  1.4556  1.4556  0.9753  0.9753
  1.0049  1.0049  0.8581  0.8581  0.6775  0.6283  0.6283  0.6030  0.6030  0.5053
  0.3548  0.3548  0.3549  0.0000  0.0006  0.2731

[...]

----------------------------------------- Iteration   16(  28)  ---------------------------------------

 eigenvalue-minimisations  :  1728
 total energy-change (2. order) : 0.5193215E-09  (-0.2883859E-08)
 number of electron      19.9999995 magnetization      -0.0000468
 augmentation part       -0.0751835 magnetization      -0.0000458

 Free energy of the ion-electron system (eV)
  alpha Z        PSCENC =         6.84043763
  Ewald energy   TEWEN  =      2230.41164628
  -Hartree energ DENC   =     -3204.39401816
  -exchange      EXHF   =         0.00000000
  -V(xc)+E(xc)   XCENC  =      -220.97994725
  PAW double counting   =      1376.51964507    -1112.27016607
  entropy T*S    EENTRO =        -0.03723879
  eigenvalues    EBANDS =      -120.48810927
  atomic energy  EATOM  =      1038.61338829
  Solvation  Ediel_sol  =         0.00000000
  free energy    TOTEN  =        -5.78436227 eV

  energy without entropy =       -5.74712348  energy(sigma->0) =       -5.76574288

 average (electrostatic) potential at core
  the test charge radii are     1.4024  1.2059
  (the norm of the test charge is              1.0000)
       1 -68.5353       2 -68.5353       3 -75.8848

 E-fermi :  -1.6471     XC(G=0):  -3.4254     alpha+bet : -2.7497

[...]

 spin component 2

[...]

 k-point    27 :       0.3333    0.3333    0.0000
  band No.  band energies     occupation
      1     -12.1530      1.00000
      2     -12.1530      1.00000
      3      -6.3619      1.00000
      4      -5.6220      1.00000
      5      -5.6220      1.00000
      6      -4.6158      1.00000
      7      -4.6158      1.00000
      8      -4.2729      1.00000
      9      -2.8530      1.00000
     10      -2.6376      1.00000
     11      -2.6376      1.00000
     12       0.3463      0.00000
     13       0.3463      0.00000
     14       2.9789      0.00000
     15       4.4141      0.00000
     16       4.4808      0.00000

[...]

 soft charge-density along one line, spin component           2
         0         1         2         3         4         5         6         7         8         9
 total charge-density along one line

------------------------ aborting loop because EDIFF is reached ----------------------------------------

[...]

  FORCE on cell =-STRESS in cart. coord.  units (eV):
  Direction    XX          YY          ZZ          XY          YZ          ZX
  Alpha Z     6.84044     6.84044     6.84044
  Ewald    2906.20115  2906.20166 -3581.99125    -0.00041    -0.00029     0.00022
  Hartree  3089.73175  3089.73166 -2975.06833     0.00008     0.00005    -0.00002
  E(xc)     -91.17756   -91.17756   -90.47455     0.00001     0.00001    -0.00001
  Local   -6294.22442 -6294.22463  6255.19258     0.00022     0.00016    -0.00013
  n-local   167.36227   154.68901   158.76117     3.37926     1.58550     1.03483
  augment    -1.45228    -1.45229    -0.41738     0.00001    -0.00000     0.00000
  Kinetic   225.88243   220.22785   227.14703     1.30496     0.58436     1.04405
  Fock        0.00000     0.00000     0.00000     0.00000     0.00000     0.00000
  Total      -0.00004    -0.00004    -0.01030     0.00000    -0.00000    -0.00000
  in kB      -0.00019    -0.00019    -0.04741     0.00000    -0.00000    -0.00000

 VOLUME and BASIS-vectors are now :
  energy-cutoff  :      500.00
  volume of cell :      348.09
      direct lattice vectors                 reciprocal lattice vectors
     3.631374852 -2.096574861  0.000000000     0.275377795  0.000000000  0.000000000
    -0.000000000  4.193149723  0.000000000     0.137688898  0.238484210  0.000000000
     0.000000000  0.000000000 22.860029000     0.000000000  0.000000000  0.043744476

  length of vectors
     4.193150303  4.193149723 22.860029000     0.275377795  0.275377833  0.043744476

 FORCES acting on ions
    electron-ion (+dipol)            ewald-force                    non-local-force                 convergence-correction
   0.201E-03 -.368E-03 -.303E+03   0.795E-04 -.107E-03 0.308E+03   0.304E-19 0.867E-17 -.440E+01   -.754E-11 0.118E-10 0.856E-05
   -.195E-03 0.363E-03 0.303E+03   -.795E-04 0.107E-03 -.308E+03   -.304E-19 -.694E-17 0.440E+01   0.756E-11 -.119E-10 -.856E-05
   0.223E-06 0.187E-06 0.949E-05   0.430E-13 -.149E-13 0.128E-10   -.462E-25 -.331E-23 0.678E-20   -.300E-13 0.529E-13 -.450E-09
   0.644E-05 -.479E-05 0.474E-04   -.961E-14 0.237E-14 0.000E+00   -.274E-26 0.173E-17 0.888E-15   -.989E-14 0.375E-13 -.790E-09

 POSITION                                       TOTAL-FORCE (eV/Angst)
      1.21046      2.09658      2.80717         0.000000     -0.000000     -0.000002
      2.42092     -0.00000      0.05285        -0.000000      0.000000      0.000002
     -0.00000     -0.00000      1.43001         0.000000     -0.000000     -0.000000
    total drift:                                0.000006     -0.000005      0.000047

  FREE ENERGIE OF THE ION-ELECTRON SYSTEM (eV)
  free  energy   TOTEN  =        -5.78436227 eV

  energy  without entropy=       -5.74712348  energy(sigma->0) =       -5.76574288

 d Force = 0.1285568E-05[ 0.807E-09, 0.257E-05]  d Energy = 0.8755863E-05-0.747E-05
 d Force =-0.1259581E+00[-0.126E+00,-0.126E+00]  d Ewald  =-0.1234395E+01 0.111E+01

 reached required accuracy - stopping structural energy minimisation

 total charge

[...]

 magnetization (x)

# of ion     s       p       d       tot
  1       -0.000  -0.000   0.000  -0.000
  2       -0.000  -0.000   0.000  -0.000
  3       -0.000  -0.000  -0.000  -0.000
tot       -0.000  -0.000  -0.000  -0.000