 vasp.5.4.1 24Jun15 (build Feb  9 2019 14:26:05) complex
 executed on           IFC91_ompi date 2019.12.23  22:26:02

 INCAR:
 POTCAR:    PAW_PBE Fe_pv 02Aug2007
 POTCAR:    PAW_PBE Te 08Apr2002

 POTCAR:    PAW_PBE Fe_pv 02Aug2007
   VRHFIN =Fe:  3pd7s1

   TITEL  = PAW_PBE Fe_pv 02Aug2007
   POMASS =   55.847; ZVAL   =   14.000    mass and valenz
   ENMAX  =  293.238; ENMIN  =  219.928 eV

 POTCAR:    PAW_PBE Te 08Apr2002
   VRHFIN =Te: s2p4

   TITEL  = PAW_PBE Te 08Apr2002
   POMASS =  127.600; ZVAL   =    6.000    mass and valenz
   ENMAX  =  174.982; ENMIN  =  131.236 eV

  PAW_PBE Fe_pv 02Aug2007               :
  PAW_PBE Te 08Apr2002                  :

 POSCAR: bulk@JVASP-6667_mp-21273
  positions in direct lattice
  velocities in cartesian coordinates
 exchange correlation table for  LEXCH =        8
   RHO(1)=    0.500       N(1)  =     2000
   RHO(2)=  100.500       N(2)  =     4000

 ion  position               nearest neighbor table
   1  0.968  0.968  0.130-   2 2.55   2 2.55   2 2.55   2 2.55   3 2.59   4 2.59   3 2.59   4 2.59

   2  0.468  0.468  0.130-   1 2.55   1 2.55   1 2.55   1 2.55   3 2.59   4 2.59   3 2.59   4 2.59

   3  0.968  0.468  0.199-   1 2.59   2 2.59   1 2.59   2 2.59
   4  0.468  0.968  0.061-   1 2.59   2 2.59   1 2.59   2 2.59

  LATTYP: Found a simple tetragonal cell.
 ALAT       =     3.6067400000
 C/A-ratio  =     7.4941623183

  Lattice vectors:

 A1 = (   3.6067400000,   0.0000000000,   0.0000000000)
 A2 = (   0.0000000000,   3.6067400000,   0.0000000000)
 A3 = (   0.0000000000,   0.0000000000,  27.0294950000)

Analysis of symmetry for initial positions (statically):
 Subroutine PRICEL returns:
 Original cell was already a primitive cell.

 Routine SETGRP: Setting up the symmetry group for a
 simple tetragonal supercell.

 Subroutine GETGRP returns: Found 16 space group operations
 (whereof  1 operations were pure point group operations)
 out of a pool of 16 trial point group operations.

The static configuration has the point symmetry C_1 .
 The point group associated with its full space group is D_4h.

Analysis of symmetry for dynamics (positions and initial velocities):
 Subroutine PRICEL returns:
 Original cell was already a primitive cell.

[...]

The dynamic configuration has the point symmetry C_1 .
 The point group associated with its full space group is D_4h.

Analysis of structural, dynamic, and magnetic symmetry:
 Subroutine PRICEL returns:
 Original cell was already a primitive cell.

 Routine SETGRP: Setting up the symmetry group for a
 simple tetragonal supercell.

 Subroutine GETGRP returns: Found  8 space group operations
 (whereof  1 operations were pure point group operations)
 out of a pool of 16 trial point group operations.

The (compounded) configuration has the point symmetry C_1 .
 The point group associated with its full space group is C_4h.

 KPOINTS: KPOINTS with grid den

Automatic generation of k-mesh.
Space group operators:
 irot       det(A)        alpha          n_x          n_y          n_z        tau_x        tau_y        tau_z
    1     1.000000     0.000000     1.000000     0.000000     0.000000     0.000000     0.000000     0.000000
    2    -1.000000     0.000000     1.000000     0.000000     0.000000     0.435037     0.435037     0.260068
    3     1.000000    90.000000     0.000000     0.000000    -1.000000     0.435037     0.500001     0.000000
    4    -1.000000    90.000000     0.000000     0.000000    -1.000000     0.000000     0.935038     0.260068
    5     1.000000   180.000000     0.000000     0.000000     1.000000     0.935036     0.935036     0.000000
    6    -1.000000   180.000000     0.000000     0.000000     1.000000     0.499999     0.499999     0.260068
    7     1.000000    90.000000     0.000000     0.000000     1.000000     0.499999     0.435037     0.000000
    8    -1.000000    90.000000     0.000000     0.000000     1.000000     0.935036     0.000000     0.260068

 Subroutine IBZKPT returns following result:

 Found     43 irreducible k-points:

 Following reciprocal coordinates:
            Coordinates               Weight
  0.000000  0.000000  0.000000      1.000000
  0.076923  0.000000  0.000000      4.000000
  0.153846  0.000000  0.000000      4.000000
  0.230769  0.000000  0.000000      4.000000
  0.307692  0.000000  0.000000      4.000000
  0.384615  0.000000  0.000000      4.000000
  0.461538  0.000000  0.000000      4.000000
  0.076923  0.076923  0.000000      4.000000
  0.153846  0.076923  0.000000      4.000000
  0.230769  0.076923  0.000000      4.000000
  0.307692  0.076923  0.000000      4.000000
  0.384615  0.076923  0.000000      4.000000
  0.461538  0.076923  0.000000      4.000000
 -0.461538  0.076923  0.000000      4.000000
 -0.384615  0.076923  0.000000      4.000000
 -0.307692  0.076923  0.000000      4.000000
 -0.230769  0.076923  0.000000      4.000000
 -0.153846  0.076923  0.000000      4.000000
  0.153846  0.153846  0.000000      4.000000
  0.230769  0.153846  0.000000      4.000000
  0.307692  0.153846  0.000000      4.000000
  0.384615  0.153846  0.000000      4.000000
  0.461538  0.153846  0.000000      4.000000
 -0.461538  0.153846  0.000000      4.000000
 -0.384615  0.153846  0.000000      4.000000
 -0.307692  0.153846  0.000000      4.000000
 -0.230769  0.153846  0.000000      4.000000
  0.230769  0.230769  0.000000      4.000000
  0.307692  0.230769  0.000000      4.000000
  0.384615  0.230769  0.000000      4.000000
  0.461538  0.230769  0.000000      4.000000
 -0.461538  0.230769  0.000000      4.000000
 -0.384615  0.230769  0.000000      4.000000
 -0.307692  0.230769  0.000000      4.000000
  0.307692  0.307692  0.000000      4.000000
  0.384615  0.307692  0.000000      4.000000
  0.461538  0.307692  0.000000      4.000000
 -0.461538  0.307692  0.000000      4.000000
 -0.384615  0.307692  0.000000      4.000000
  0.384615  0.384615  0.000000      4.000000
  0.461538  0.384615  0.000000      4.000000
 -0.461538  0.384615  0.000000      4.000000
  0.461538  0.461538  0.000000      4.000000

 Following cartesian coordinates:
            Coordinates               Weight
  0.000000  0.000000  0.000000      1.000000
  0.021328  0.000000  0.000000      4.000000
  0.042655  0.000000  0.000000      4.000000
  0.063983  0.000000  0.000000      4.000000
  0.085310  0.000000  0.000000      4.000000
  0.106638  0.000000  0.000000      4.000000
  0.127966  0.000000  0.000000      4.000000
  0.021328  0.021328  0.000000      4.000000
  0.042655  0.021328  0.000000      4.000000
  0.063983  0.021328  0.000000      4.000000
  0.085310  0.021328  0.000000      4.000000
  0.106638  0.021328  0.000000      4.000000
  0.127966  0.021328  0.000000      4.000000
 -0.127966  0.021328  0.000000      4.000000
 -0.106638  0.021328  0.000000      4.000000
 -0.085310  0.021328  0.000000      4.000000
 -0.063983  0.021328  0.000000      4.000000
 -0.042655  0.021328  0.000000      4.000000
  0.042655  0.042655  0.000000      4.000000
  0.063983  0.042655  0.000000      4.000000
  0.085310  0.042655  0.000000      4.000000
  0.106638  0.042655  0.000000      4.000000
  0.127966  0.042655  0.000000      4.000000
 -0.127966  0.042655  0.000000      4.000000
 -0.106638  0.042655  0.000000      4.000000
 -0.085310  0.042655  0.000000      4.000000
 -0.063983  0.042655  0.000000      4.000000
  0.063983  0.063983  0.000000      4.000000
  0.085310  0.063983  0.000000      4.000000
  0.106638  0.063983  0.000000      4.000000
  0.127966  0.063983  0.000000      4.000000
 -0.127966  0.063983  0.000000      4.000000
 -0.106638  0.063983  0.000000      4.000000
 -0.085310  0.063983  0.000000      4.000000
  0.085310  0.085310  0.000000      4.000000
  0.106638  0.085310  0.000000      4.000000
  0.127966  0.085310  0.000000      4.000000
 -0.127966  0.085310  0.000000      4.000000
 -0.106638  0.085310  0.000000      4.000000
  0.106638  0.106638  0.000000      4.000000
  0.127966  0.106638  0.000000      4.000000
 -0.127966  0.106638  0.000000      4.000000
  0.127966  0.127966  0.000000      4.000000

 Subroutine IBZKPT_HF returns following result:

 Found    169 k-points in 1st BZ
 the following    169 k-points will be used (e.g. in the exchange kernel)
 Following reciprocal coordinates:   # in IRBZ
  0.000000  0.000000  0.000000    0.00591716   1 t-inv F
  0.076923  0.000000  0.000000    0.00591716   2 t-inv F
  0.153846  0.000000  0.000000    0.00591716   3 t-inv F
  0.230769  0.000000  0.000000    0.00591716   4 t-inv F
  0.307692  0.000000  0.000000    0.00591716   5 t-inv F
  0.384615  0.000000  0.000000    0.00591716   6 t-inv F
  0.461538  0.000000  0.000000    0.00591716   7 t-inv F
  0.076923  0.076923  0.000000    0.00591716   8 t-inv F
  0.153846  0.076923  0.000000    0.00591716   9 t-inv F
  0.230769  0.076923  0.000000    0.00591716  10 t-inv F
  0.307692  0.076923  0.000000    0.00591716  11 t-inv F
  0.384615  0.076923  0.000000    0.00591716  12 t-inv F
  0.461538  0.076923  0.000000    0.00591716  13 t-inv F
 -0.461538  0.076923  0.000000    0.00591716  14 t-inv F
 -0.384615  0.076923  0.000000    0.00591716  15 t-inv F
 -0.307692  0.076923  0.000000    0.00591716  16 t-inv F
 -0.230769  0.076923  0.000000    0.00591716  17 t-inv F
 -0.153846  0.076923  0.000000    0.00591716  18 t-inv F
  0.153846  0.153846  0.000000    0.00591716  19 t-inv F
  0.230769  0.153846  0.000000    0.00591716  20 t-inv F
  0.307692  0.153846  0.000000    0.00591716  21 t-inv F
  0.384615  0.153846  0.000000    0.00591716  22 t-inv F
  0.461538  0.153846  0.000000    0.00591716  23 t-inv F
 -0.461538  0.153846  0.000000    0.00591716  24 t-inv F
 -0.384615  0.153846  0.000000    0.00591716  25 t-inv F
 -0.307692  0.153846  0.000000    0.00591716  26 t-inv F
 -0.230769  0.153846  0.000000    0.00591716  27 t-inv F
  0.230769  0.230769  0.000000    0.00591716  28 t-inv F
  0.307692  0.230769  0.000000    0.00591716  29 t-inv F
  0.384615  0.230769  0.000000    0.00591716  30 t-inv F
  0.461538  0.230769  0.000000    0.00591716  31 t-inv F
 -0.461538  0.230769  0.000000    0.00591716  32 t-inv F
 -0.384615  0.230769  0.000000    0.00591716  33 t-inv F
 -0.307692  0.230769  0.000000    0.00591716  34 t-inv F
  0.307692  0.307692  0.000000    0.00591716  35 t-inv F
  0.384615  0.307692  0.000000    0.00591716  36 t-inv F
  0.461538  0.307692  0.000000    0.00591716  37 t-inv F
 -0.461538  0.307692  0.000000    0.00591716  38 t-inv F
 -0.384615  0.307692  0.000000    0.00591716  39 t-inv F
  0.384615  0.384615  0.000000    0.00591716  40 t-inv F
  0.461538  0.384615  0.000000    0.00591716  41 t-inv F
 -0.461538  0.384615  0.000000    0.00591716  42 t-inv F
  0.461538  0.461538  0.000000    0.00591716  43 t-inv F
 -0.076923 -0.000000 -0.000000    0.00591716   2 t-inv F
 -0.000000  0.076923  0.000000    0.00591716   2 t-inv F
  0.000000 -0.076923 -0.000000    0.00591716   2 t-inv F
 -0.153846 -0.000000 -0.000000    0.00591716   3 t-inv F
 -0.000000  0.153846  0.000000    0.00591716   3 t-inv F
  0.000000 -0.153846 -0.000000    0.00591716   3 t-inv F
 -0.230769 -0.000000 -0.000000    0.00591716   4 t-inv F
 -0.000000  0.230769  0.000000    0.00591716   4 t-inv F
[...]
 k-point 35 :   0.3077 0.3077 0.0000  plane waves:   23500
 k-point 36 :   0.3846 0.3077 0.0000  plane waves:   23464
 k-point 37 :   0.4615 0.3077 0.0000  plane waves:   23440
 k-point 38 :  -0.4615 0.3077 0.0000  plane waves:   23440
 k-point 39 :  -0.3846 0.3077 0.0000  plane waves:   23464
 k-point 40 :   0.3846 0.3846 0.0000  plane waves:   23508
 k-point 41 :   0.4615 0.3846 0.0000  plane waves:   23472
 k-point 42 :  -0.4615 0.3846 0.0000  plane waves:   23472
 k-point 43 :   0.4615 0.4615 0.0000  plane waves:   23568

 maximum and minimum number of plane-waves per node :     23568    23270

 maximum number of plane-waves:     23568
 maximum index in each direction:
   IXMAX=    7   IYMAX=    7   IZMAX=   53
   IXMIN=   -7   IYMIN=   -7   IZMIN=  -53

 NGX is ok and might be reduce to  30
 NGY is ok and might be reduce to  30
 NGZ is ok and might be reduce to 214

 serial   3D FFT for wavefunctions
 parallel 3D FFT for charge:
    minimum data exchange during FFTs selected (reduces bandwidth)

 Broyden mixing: mesh for mixing (old mesh)
   NGX = 15   NGY = 15   NGZ =107
  (NGX  = 60   NGY  = 60   NGZ  =432)
  gives a total of  24075 points

 charge density for first step will be calculated from the start-wavefunctions

 Maximum index for augmentation-charges         2252 (set IRDMAX)

 initial charge from wavefunction
 First call to EWALD:  gamma=   0.251
 Maximum number of real-space cells 5x 5x 1
 Maximum number of reciprocal cells 2x 2x 9

 FEWALD executed in parallel

----------------------------------------- Iteration    1(   1)  ---------------------------------------

atom =   1  type =  1  l = 2

 onsite density matrix

spin component  1

  0.7459  0.0000  0.0000 -0.0000 -0.0000      0.0000 -0.0000  0.0000  0.0000  0.0056
  0.0000  0.8443 -0.0000  0.0000  0.0000      0.0000 -0.0000  0.0000 -0.0031  0.0000
  0.0000 -0.0000  0.8179  0.0000 -0.0000     -0.0000 -0.0000  0.0000 -0.0000 -0.0000
 -0.0000  0.0000  0.0000  0.8443  0.0000     -0.0000  0.0031  0.0000 -0.0000 -0.0000
 -0.0000  0.0000 -0.0000  0.0000  0.9150     -0.0056 -0.0000  0.0000  0.0000  0.0000

[...]

 occupancies and eigenvectors

  o =  0.2318  v = -0.0000  0.0022 -0.0000 -0.0078  0.0000  0.0144  0.0000  0.0000  0.0000  0.9599      0.0000 -0.0078  0.0000 -0.0022 -0.0000 -0.0503  0.0000  0.0000 -0.0000  0.2752
  o =  0.3093  v =  0.0259  0.0000 -0.0000  0.0000  0.0000 -0.0000  0.7069 -0.0000  0.0003  0.0000      0.0000  0.0000 -0.0000  0.0000  0.0050 -0.0000 -0.0003  0.0000  0.7069  0.0000
  o =  0.3335  v = -0.0000 -0.0000 -0.0003  0.0000 -0.0000  0.0000 -0.7068  0.0000  0.0068  0.0000      0.0000 -0.0000 -0.0301  0.0000 -0.0000  0.0000  0.0068 -0.0000  0.7068 -0.0000
  o =  0.5267  v = -0.0000  0.0135  0.0000 -0.0041 -0.0000  0.0000 -0.0000 -0.2906  0.0000 -0.0000      0.0000  0.0041  0.0000  0.0135  0.0000 -0.0000  0.0000  0.9566 -0.0000 -0.0000
  o =  0.5899  v = -0.0000 -0.0002  0.0000  0.0074  0.0000  0.0308 -0.0000  0.0000  0.0000 -0.0522      0.0000  0.0074  0.0000  0.0002  0.0000 -0.9981  0.0000 -0.0000 -0.0000 -0.0016
  o =  0.7460  v =  0.9991 -0.0000  0.0000 -0.0000  0.0000  0.0000 -0.0182 -0.0000 -0.0000 -0.0000      0.0000  0.0000 -0.0000 -0.0000 -0.0338 -0.0000  0.0000  0.0000 -0.0182 -0.0000
  o =  0.8183  v = -0.0000  0.0000  0.7417 -0.0000 -0.0000  0.0000  0.0143 -0.0000  0.0158 -0.0000      0.0000 -0.0000 -0.6701 -0.0000 -0.0000 -0.0000  0.0158  0.0000 -0.0143 -0.0000
  o =  0.8413  v =  0.0000 -0.6580 -0.0000  0.2585 -0.0000  0.0000  0.0000 -0.0073 -0.0000  0.0000      0.0000 -0.2585  0.0000 -0.6580  0.0000 -0.0000 -0.0000  0.0186 -0.0000 -0.0000
  o =  0.8476  v = -0.0000  0.7062 -0.0000 -0.0344  0.0000  0.0099 -0.0000 -0.0000 -0.0000 -0.0006      0.0000 -0.0344 -0.0000 -0.7062 -0.0000 -0.0005 -0.0000 -0.0000 -0.0000 -0.0120
  o =  0.9152  v =  0.0336  0.0000  0.0000 -0.0000 -0.0000  0.0000 -0.0041  0.0000 -0.0000 -0.0000      0.0000 -0.0000 -0.0000 -0.0000  0.9994 -0.0000  0.0000 -0.0000 -0.0041 -0.0000
atom =   2  type =  1  l = 2

 onsite density matrix

[...]

spin component  4

  0.5890 -0.0000 -0.0000  0.0000 -0.0000      0.0000 -0.0000  0.0000  0.0000 -0.0187
 -0.0000  0.3218  0.0000 -0.0000 -0.0000      0.0000  0.0000  0.0000 -0.0122  0.0000
 -0.0000  0.0000  0.5269 -0.0000  0.0000     -0.0000 -0.0000  0.0000 -0.0000  0.0000
  0.0000 -0.0000 -0.0000  0.3218 -0.0000     -0.0000  0.0122  0.0000  0.0000 -0.0000
 -0.0000 -0.0000  0.0000 -0.0000  0.2329      0.0187 -0.0000 -0.0000  0.0000  0.0000

 occupancies and eigenvectors

  o =  0.2318  v = -0.0000  0.0034 -0.0000 -0.0074  0.0000  0.0220  0.0000  0.0000 -0.0000  0.9061      0.0000 -0.0074  0.0000 -0.0034  0.0000 -0.0475 -0.0000 -0.0000 -0.0000  0.4196
  o =  0.3093  v =  0.0259  0.0000 -0.0000 -0.0000  0.0000 -0.0000  0.7069  0.0000  0.0003  0.0000      0.0000 -0.0000 -0.0000  0.0000  0.0050 -0.0000 -0.0003  0.0000  0.7069  0.0000
  o =  0.3335  v =  0.0000 -0.0000  0.0148  0.0000  0.0000  0.0000  0.6146 -0.0000 -0.3490 -0.0000      0.0000 -0.0000  0.0262  0.0000  0.0000 -0.0000 -0.3490  0.0000 -0.6146 -0.0000
  o =  0.5267  v =  0.0000 -0.0134  0.0000 -0.0046  0.0000  0.0000 -0.0000 -0.3259 -0.0000 -0.0000      0.0000  0.0046  0.0000 -0.0134  0.0000 -0.0000 -0.0000 -0.9452  0.0000 -0.0000
  o =  0.5899  v = -0.0000  0.0062 -0.0000  0.0041 -0.0000 -0.8357  0.0000  0.0000  0.0000 -0.0286      0.0000  0.0041  0.0000 -0.0062 -0.0000 -0.5466  0.0000  0.0000 -0.0000  0.0437
  o =  0.7460  v =  0.9991  0.0000  0.0000 -0.0000  0.0000 -0.0000 -0.0182  0.0000 -0.0000 -0.0000      0.0000  0.0000 -0.0000 -0.0000 -0.0338 -0.0000  0.0000  0.0000 -0.0182 -0.0000
  o =  0.8183  v = -0.0000 -0.0000  0.9994  0.0000 -0.0000 -0.0000  0.0004 -0.0000  0.0213  0.0000      0.0000 -0.0000 -0.0173 -0.0000 -0.0000 -0.0000  0.0213  0.0000 -0.0004  0.0000
  o =  0.8413  v =  0.0000 -0.5097 -0.0000  0.4899 -0.0000 -0.0000  0.0000 -0.0139  0.0000  0.0000      0.0000 -0.4899  0.0000 -0.5097  0.0000 -0.0000  0.0000  0.0144  0.0000 -0.0000
  o =  0.8476  v =  0.0000 -0.7023 -0.0000  0.0819  0.0000 -0.0098 -0.0000  0.0000 -0.0000  0.0014      0.0000  0.0819 -0.0000  0.7023  0.0000  0.0011  0.0000  0.0000  0.0000  0.0120
  o =  0.9152  v = -0.0336 -0.0000 -0.0000  0.0000  0.0000 -0.0000  0.0041 -0.0000  0.0000  0.0000      0.0000 -0.0000 -0.0000  0.0000 -0.9994  0.0000 -0.0000  0.0000  0.0041  0.0000

 eigenvalue-minimisations  :     0
 total energy-change (2. order) :-0.2319360E+02  ( 0.0000000E+00)
 number of electron      39.9999987 magnetization       0.0000000      0.0000000      4.3793208
 augmentation part       14.5729799 magnetization       0.0000000      0.0000000      3.2706928

 Free energy of the ion-electron system (eV)
  alpha Z        PSCENC =        21.35532532
  Ewald energy   TEWEN  =     15290.16457999
  -Hartree energ DENC   =    -19869.44126840
  -exchange      EXHF   =         0.00000000
  -V(xc)+E(xc)   XCENC  =        85.28035845
  PAW double counting   =      5419.60895662    -5526.29100953
  entropy T*S    EENTRO =        -0.00037236
  eigenvalues    EBANDS =      -805.25018871
  atomic energy  EATOM  =      5361.38001831
  Solvation  Ediel_sol  =         0.00000000
  free energy    TOTEN  =       -23.19360032 eV

  energy without entropy =      -23.19322796  energy(sigma->0) =      -23.19341414

 average (electrostatic) potential at core
  the test charge radii are     0.9500  1.1897
  (the norm of the test charge is              1.0000)
       1 -85.0797       2 -85.0797       3 -96.1398       4 -96.1398

 E-fermi :  -1.4139     XC(G=0):  -3.0263     alpha+bet : -3.1736

 k-point     1 :       0.0000    0.0000    0.0000
  band No.  band energies     occupation
      1     -56.5462      1.00000
      2     -56.3914      1.00000
      3     -56.0166      1.00000
      4     -55.9963      1.00000
      5     -55.3827      1.00000
      6     -55.2041      1.00000
      7     -53.6951      1.00000
      8     -53.5304      1.00000
      9     -53.2101      1.00000
     10     -53.1765      1.00000
     11     -52.9420      1.00000
     12     -52.7437      1.00000
     13     -14.1991      1.00000
     14     -14.1866      1.00000
     15     -13.5065      1.00000
     16     -13.4944      1.00000
     17      -7.2119      1.00000
     18      -6.9126      1.00000
     19      -6.3751      1.00000
     20      -5.4137      1.00000
     21      -5.1874      1.00000
     22      -5.1716      1.00000
     23      -4.9645      1.00000
     24      -4.0820      1.00000
     25      -4.0189      1.00000
     26      -3.7938      1.00000
     27      -3.5872      1.00000
     28      -3.5823      1.00000
     29      -3.3860      1.00000
     30      -3.3280      1.00000
     31      -3.2328      1.00000
     32      -2.6756      1.00000
     33      -2.6593      1.00000
     34      -2.6380      1.00000
     35      -2.5630      1.00000
     36      -2.2232      1.00000
     37      -1.9696      1.00000
     38      -1.6676      1.00000
     39      -1.5726      1.00000
     40      -1.5014      1.00000
     41      -0.4957      0.00000
     42      -0.3708      0.00000
     43      -0.1178      0.00000
     44       0.1099      0.00000
     45       0.3292      0.00000
     46       0.4230      0.00000
     47       0.7154      0.00000
     48       1.1353      0.00000
     49       1.5871      0.00000
     50       1.7989      0.00000
     51       2.4496      0.00000
     52       2.5061      0.00000
     53       2.9324      0.00000
     54       2.9599      0.00000
     55       3.3734      0.00000
     56       3.4037      0.00000
     57       3.5390      0.00000
     58       3.5690      0.00000
     59       3.9113      0.00000
     60       4.0411      0.00000
[...]
     66       4.9750      0.00000
     67       5.0766      0.00000
     68       5.1970      0.00000
     69       5.3074      0.00000
     70       5.4232      0.00000
     71       5.4670      0.00000
     72       5.6249      0.00000
     73       5.6636      0.00000
     74       5.7030      0.00000
     75       6.5786      0.00000
     76       6.7083      0.00000
     77       7.0314      0.00000
     78       7.1167      0.00000
     79       8.4261      0.00000
     80       8.4584      0.00000

[...]

 k-point    43 :       0.4615    0.4615    0.0000
  band No.  band energies     occupation
      1     -56.4811      1.00000
      2     -56.4788      1.00000
      3     -56.0060      1.00000
      4     -56.0057      1.00000
      5     -55.2897      1.00000
      6     -55.2871      1.00000
      7     -53.6332      1.00000
      8     -53.6308      1.00000
      9     -53.1925      1.00000
     10     -53.1920      1.00000
     11     -52.8323      1.00000
     12     -52.8295      1.00000
     13     -12.1759      1.00000
     14     -12.1661      1.00000
     15     -12.1592      1.00000
     16     -12.1494      1.00000
     17      -6.7262      1.00000
     18      -6.7024      1.00000
     19      -6.4319      1.00000
     20      -6.4203      1.00000
     21      -5.2254      1.00000
     22      -5.1990      1.00000
     23      -5.1377      1.00000
     24      -5.0977      1.00000
     25      -4.9330      1.00000
     26      -4.8959      1.00000
     27      -4.4981      1.00000
     28      -4.4906      1.00000
     29      -4.2441      1.00000
     30      -4.1846      1.00000
     31      -3.7735      1.00000
     32      -3.4684      1.00000
     33      -3.4396      1.00000
     34      -3.1250      1.00000
     35      -3.0863      1.00000
     36      -3.0472      1.00000
     37      -2.9694      1.00000
     38      -2.9590      1.00000
     39      -2.6524      1.00000
     40      -2.6508      1.00000
     41      -1.5004      1.00000
     42      -1.5003      1.00000
     43      -0.9357      0.00000
     44      -0.9120      0.00000
     45      -0.6024      0.00000
     46      -0.5937      0.00000
     47       0.0289      0.00000
     48       0.0511      0.00000
     49       2.2524      0.00000
     50       2.2863      0.00000
     51       2.8488      0.00000
     52       2.9035      0.00000
     53       3.0367      0.00000
     54       3.0767      0.00000
     55       3.7110      0.00000
     56       3.7370      0.00000
     57       4.3602      0.00000
     58       4.4849      0.00000
     59       4.9959      0.00000
     60       5.0454      0.00000
[...]
     66       7.2210      0.00000
     67       7.6430      0.00000
     68       7.7263      0.00000
     69       7.8958      0.00000
     70       7.9192      0.00000
     71       7.9857      0.00000
     72       8.0009      0.00000
     73       8.0039      0.00000
     74       8.0373      0.00000
     75       8.4552      0.00000
     76       8.5316      0.00000
     77       8.6010      0.00000
     78       8.6668      0.00000
     79       8.6739      0.00000
     80       8.6921      0.00000

 soft charge-density along one line, spin component           1
         0         1         2         3         4         5         6         7         8         9
 total charge-density along one line

[...]

 soft charge-density along one line, spin component           4
         0         1         2         3         4         5         6         7         8         9
 total charge-density along one line

------------------------ aborting loop because EDIFF is reached ----------------------------------------

 total charge

# of ion     s       p       d       tot
  1        0.323   6.339   6.133  12.795
  2        0.323   6.339   6.133  12.795
  3        1.382   1.948   0.063   3.394
  4        1.382   1.948   0.063   3.394
tot        3.411  16.574  12.392  32.376

 magnetization (x)

[...]

 magnetization (y)

[...]

 magnetization (z)

[...]

  FREE ENERGIE OF THE ION-ELECTRON SYSTEM (eV)
  free  energy   TOTEN  =       -23.19360032 eV

  energy  without entropy=      -23.19322796  energy(sigma->0) =      -23.19341414

 Spin-Orbit-Coupling matrix elements

 Ion:    1  E_soc:     -0.0367615
 l=   1
     0.0000000    -0.0045303    -0.0044715
    -0.0045303     0.0000000    -0.0045303
    -0.0044715    -0.0045303     0.0000000
 l=   2
     0.0000000    -0.0003327     0.0000000    -0.0003327    -0.0016644
    -0.0003327     0.0000000    -0.0008933    -0.0002461    -0.0002431
     0.0000000    -0.0008933     0.0000000    -0.0008933     0.0000000
    -0.0003327    -0.0002461    -0.0008933     0.0000000    -0.0002431
    -0.0016644    -0.0002431     0.0000000    -0.0002431     0.0000000
 l=   3
     0.0000000     0.0000000     0.0000000     0.0000000     0.0000000     0.0000000     0.0000000
     0.0000000     0.0000000     0.0000000     0.0000000     0.0000000     0.0000000     0.0000000
     0.0000000     0.0000000     0.0000000     0.0000000     0.0000000     0.0000000     0.0000000
     0.0000000     0.0000000     0.0000000     0.0000000     0.0000000     0.0000000     0.0000000
     0.0000000     0.0000000     0.0000000     0.0000000     0.0000000     0.0000000     0.0000000
     0.0000000     0.0000000     0.0000000     0.0000000     0.0000000     0.0000000     0.0000000
     0.0000000     0.0000000     0.0000000     0.0000000     0.0000000     0.0000000     0.0000000

[...]

 Ion:    4  E_soc:     -0.2083273
 l=   1
     0.0000000    -0.0337172    -0.0363139
    -0.0337172     0.0000000    -0.0337172
    -0.0363139    -0.0337172     0.0000000
 l=   2
     0.0000000    -0.0000266     0.0000000    -0.0000266    -0.0001164
    -0.0000266     0.0000000    -0.0000955     0.0000138    -0.0000343
     0.0000000    -0.0000955     0.0000000    -0.0000955     0.0000000
    -0.0000266     0.0000138    -0.0000955     0.0000000    -0.0000343
    -0.0001164    -0.0000343     0.0000000    -0.0000343     0.0000000
 l=   3
     0.0000000     0.0000000     0.0000000     0.0000000     0.0000000     0.0000000     0.0000000
     0.0000000     0.0000000     0.0000000     0.0000000     0.0000000     0.0000000     0.0000000
     0.0000000     0.0000000     0.0000000     0.0000000     0.0000000     0.0000000     0.0000000
     0.0000000     0.0000000     0.0000000     0.0000000     0.0000000     0.0000000     0.0000000
     0.0000000     0.0000000     0.0000000     0.0000000     0.0000000     0.0000000     0.0000000
     0.0000000     0.0000000     0.0000000     0.0000000     0.0000000     0.0000000     0.0000000
     0.0000000     0.0000000     0.0000000     0.0000000     0.0000000     0.0000000     0.0000000

 total charge

[...]

 magnetization (x)

[...]

 magnetization (y)

[...]

 magnetization (z)

# of ion     s       p       d       tot
  1        0.013   0.019   2.174   2.207
  2        0.013   0.019   2.174   2.207
  3       -0.001  -0.057   0.003  -0.056
  4       -0.001  -0.057   0.003  -0.056
tot        0.024  -0.077   4.354   4.302